39
energy=-47293.64317745 config_type=Default name=Pyr14-FSI
C 3.97452229 0.61714761 0.52336190
C 2.86816843 -0.16524263 -0.10496160
C 1.47873414 0.27152053 0.38735582
C 0.50714201 -0.60445527 -0.33442799
N -0.85773980 -0.40935481 -0.06205831
C -1.59258123 -1.48835917 -0.71801128
C -1.33429481 0.82484394 -0.63060648
C -2.43544481 1.33185323 0.27528056
C -2.72169863 0.09353212 1.11943810
C -1.27069642 -0.39017583 1.29455852
H 4.65852675 1.09389363 -0.23391118
H 4.62392674 -0.05344823 1.13022691
H 3.61800611 1.41924540 1.19852115
H 2.95025303 -0.02716264 -1.21462096
H 3.01744590 -1.24642309 0.06088086
H 1.50847688 0.19340853 1.46881881
H 1.31070465 1.33160227 0.10625454
H 0.74896111 -1.67653251 -0.17661438
H 0.66655444 -0.43552938 -1.42153104
H -2.41219853 -1.10532035 -1.37576111
H -0.94692480 -2.09230625 -1.39576487
H -2.01757579 -2.20237877 0.01891667
H -1.80657356 0.64628449 -1.62989954
H -0.52435689 1.56094410 -0.75450356
H -3.32963724 1.64792295 -0.28345001
H -2.06003412 2.13229324 0.96492583
H -3.20311596 0.32559680 2.07164154
H -3.29154880 -0.59253290 0.46367815
H -0.82522158 0.37446216 1.94107473
H -1.30177950 -1.37532919 1.79755747
O -2.80630092 2.47286712 0.38733008
S -2.56710803 3.21995800 1.64914868
O -3.53467375 2.70923398 2.69448621
N -0.99278608 3.00772223 2.28220197
S 0.23539699 3.00770502 1.09410486
O -0.26962080 3.24237781 -0.29059906
O 1.00636182 1.71188811 1.17815480
F 1.31272808 4.23442416 1.48710265
F -2.96551898 4.82128596 1.41026002
39
energy=-47264.20723827 config_type=Default name=Pyr14-FSI
C 3.44930908 0.44331610 -0.33399404
C 2.89518129 -0.35203660 0.80226432
C 1.41185457 -0.10158954 1.05070331
C 0.67154812 -0.47651748 -0.19359624
N -0.72992173 -0.31245660 -0.15766752
C -1.33287182 -1.48637689 -0.76672219
C -1.32361220 -0.17558406 1.13507955
C -2.67544372 0.45936713 0.87019884
C -2.42609701 1.35181387 -0.31797202
C -1.18515588 0.81123068 -0.96627687
H 2.77421757 1.26212978 -0.69531888
H 4.43730498 0.89471332 -0.03131777
H 3.69775638 -0.16501192 -1.24036807
H 3.49227332 -0.15326184 1.73824166
H 3.08857545 -1.42372360 0.59247212
H 1.14831980 -0.68731480 1.93354424
H 1.29222033 0.97216480 1.30006917
H 1.06510377 0.19405491 -1.01157941
H 0.97582360 -1.49328170 -0.49160763
H -1.31930141 -1.35885774 -1.85973986
H -0.72084251 -2.40554947 -0.55245274
H -2.35786358 -1.66557916 -0.41437929
H -1.50444657 -1.16930678 1.59734152
H -0.79717049 0.52994240 1.80579866
H -3.45990642 -0.27303751 0.68117891
H -3.00847909 1.04678699 1.77342597
H -2.32328337 2.39819739 0.01419006
H -3.33034050 1.27537037 -0.95644941
H -1.49106272 0.48377326 -1.99682362
H -0.41368928 1.57662473 -1.09652732
O -2.48918001 -3.14161881 -1.13799698
S -2.01152917 -2.54764997 -2.42605189
O -0.83877659 -3.38256302 -2.89292742
N -3.21093211 -2.50776938 -3.64505106
S -4.80672542 -2.68739256 -3.06427427
O -5.67552961 -2.83414294 -4.29733602
O -5.32375696 -1.48499279 -2.34360212
F -5.04232710 -4.06151504 -2.16199754
F -1.37718326 -1.01756512 -2.12910501
39
energy=-47317.87716245 config_type=Default name=Pyr14-FSI
C 3.56432638 -0.36199651 0.58855164
C 2.28377985 -0.53876375 -0.24216273
C 1.49030796 0.71917981 -0.03924781
C 0.19453719 0.79720684 -0.74722657
N -0.79979418 -0.17047285 -0.47086915
C -0.67766105 -1.39539690 -1.20895082
C -2.07879605 0.43066533 -0.80790844
C -2.71346296 0.92266194 0.44325115
C -1.74802084 0.60011931 1.53452035
C -0.94790892 -0.52375790 0.91215385
H 4.39923303 -0.84907008 0.06047827
H 3.47083238 -0.86670274 1.57699652
H 3.76226917 0.70373172 0.79548193
H 2.59719964 -0.62957157 -1.30588168
H 1.83643896 -1.45604284 0.13703939
H 2.12945480 1.52714327 -0.45789668
H 1.43803394 0.95430976 1.04531435
H -0.23137172 1.80974170 -0.58897488
H 0.40533513 0.75037084 -1.84445976
H -0.06744273 -1.30648416 -2.12860437
H -1.69062028 -1.71920968 -1.52251243
H -0.32168656 -2.22908296 -0.54898050
H -2.73940103 -0.26375001 -1.36205178
H -1.96288218 1.32442613 -1.48832600
H -3.65156660 0.36084549 0.61063692
H -2.96777405 2.00065435 0.42647329
H -1.05354210 1.40979439 1.79624207
H -2.27924425 0.20163995 2.43442975
H -0.04622700 -0.77109456 1.45613669
H -1.59434593 -1.43109432 0.94634744
O 0.38633058 1.47382008 -4.75364087
S -0.01494241 1.96832058 -3.38437608
O -0.17432859 3.46027681 -3.48330079
N 1.35475372 1.70768986 -2.36049353
S 2.68821069 2.49258066 -3.10362607
O 2.31823600 3.18914735 -4.39790466
O 3.79776138 1.55269111 -3.45806386
F 3.24394920 3.64243436 -2.01820905
F -1.33661713 1.19997759 -2.77303332
39
energy=-47319.88640564 config_type=Default name=Pyr14-FSI
C 3.68743329 0.57540831 0.65711808
C 2.27112316 0.64059467 0.09545793
C 1.77835975 -0.74023860 -0.25816479
C 0.41738789 -0.81741063 -0.81807046
N -0.67021054 -0.35025318 -0.03616022
C -0.55756994 -0.47728968 1.37497581
C -1.90882630 -1.05581161 -0.42406297
C -3.01053031 -0.18192671 0.14755044
C -2.42397966 1.20929741 0.23981095
C -1.07676746 1.00257898 -0.44052860
H 4.17905606 1.57150975 0.55526219
H 4.24754284 -0.14102246 0.02178693
H 3.68214217 0.29195993 1.72905183
H 1.67819693 1.12994720 0.89339768
H 2.34690145 1.29840835 -0.80827319
H 1.98000294 -1.37415806 0.61296604
H 2.50132250 -1.11459899 -1.04431949
H 0.22259842 -1.88965985 -1.07530134
H 0.39826826 -0.27662374 -1.80568752
H -1.49455639 -0.89414523 1.79057314
H 0.22039344 -1.24178531 1.62105075
H -0.38195719 0.47919309 1.90465094
H -1.86166095 -2.00495193 0.10511353
H -1.97752347 -1.11314438 -1.52637267
H -3.84445474 -0.20134120 -0.57689547
H -3.39957818 -0.55637319 1.09348493
H -2.30905520 1.57857601 1.27265606
H -3.02953354 1.95071862 -0.32068241
H -1.30602797 0.92665838 -1.53218555
H -0.35849727 1.77588407 -0.17790986
O -2.16907406 3.75992876 1.88313112
S -2.46651194 4.34289267 0.52335079
O -3.26519939 3.28073053 -0.19962464
N -1.04889597 4.75954255 -0.32917890
S 0.30908416 5.06784868 0.65769807
O 0.14056477 4.70297635 2.08470413
O 0.55803882 6.55845401 0.59796683
F 1.70519651 4.32598658 0.08823644
F -3.44839791 5.69183073 0.76461846
39
energy=-47316.16748090 config_type=Default name=Pyr14-FSI
C 3.84648111 0.33504872 0.53337645
C 2.85663431 -0.27779875 -0.42603945
C 1.47315556 -0.05614869 0.18619575
C 0.39591865 -0.63028898 -0.69004232
N -0.91011282 -0.40232836 -0.07853949
C -1.27352967 -1.61387053 0.61246043
C -0.91403367 0.76661653 0.76887855
C -2.41521094 1.07872374 0.85491205
C -2.70860862 1.06852838 -0.64090239
C -1.92984431 -0.15217952 -1.07596294
H 4.40289738 1.18011467 0.04075345
H 3.37175414 0.80407756 1.41861726
H 4.62113648 -0.38989534 0.83040336
H 3.08538662 -1.34723489 -0.57354263
H 2.91508993 0.26197972 -1.38296210
H 1.41762901 1.03283590 0.33523878
H 1.49235975 -0.58799253 1.16548067
H 0.42782007 -0.15347030 -1.67968703
H 0.58975595 -1.70918454 -0.78885891
H -1.88080941 -2.27535318 -0.07162641
H -0.39772736 -2.23536039 0.88741853
H -1.92455728 -1.45221373 1.48992362
H -0.43849938 0.63723430 1.73242052
H -0.53044047 1.60692021 0.14372839
H -2.52952688 2.12866454 1.24231982
H -2.97284631 0.33351394 1.42069598
H -2.22592670 1.99830286 -1.04796607
H -3.76929170 1.04866789 -0.87368789
H -1.42688558 -0.00229005 -2.04892022
H -2.64816785 -0.99561920 -1.17822803
O 0.05319049 -0.80965221 4.45578288
S 0.06711831 -0.41016627 2.99828137
O 0.40493062 -1.61707546 2.16233219
N -1.45870488 0.23499720 2.58399551
S -2.73705348 -0.23064527 3.60001637
O -3.54444147 -1.35648699 3.01167871
O -3.71950710 0.90664277 3.77516573
F -2.26527250 -0.71383716 5.11448171
F 1.23570517 0.78917805 2.83696144
39
energy=-47320.61783029 config_type=Default name=Pyr14-FSI
C 3.63053559 -0.02021997 0.16107240
C 2.82488050 1.13735347 -0.28975785
C 1.36080005 1.05844689 0.01884093
C 0.65851605 -0.10222021 -0.58301727
N -0.73051295 -0.14035033 -0.26533935
C -1.37622120 -1.09204806 -1.18250889
C -0.99796595 -0.67490420 1.06038067
C -2.42017665 -0.29217677 1.33874841
C -2.76140630 0.80048204 0.35014927
C -1.44763438 1.08541072 -0.38575401
H 4.59468523 0.34607533 0.57383930
H 3.17031384 -0.62439439 0.95780078
H 3.94557116 -0.66011510 -0.71438648
H 3.19445886 2.07254873 0.19894437
H 2.99419041 1.30659897 -1.37883854
H 0.92135632 1.97316654 -0.47972923
H 1.18308787 1.12202324 1.10013003
H 0.80227391 -0.10650322 -1.69317499
H 1.07509068 -1.09125729 -0.26123358
H -2.47260167 -1.12443144 -1.03311216
H -0.93219755 -2.09201074 -0.94089722
H -1.07443995 -0.87846189 -2.21407132
H -0.25749817 -0.22930304 1.74768546
H -0.92580705 -1.76448062 1.00568557
H -3.14537979 -1.10726889 1.25374002
H -2.43404952 0.07522714 2.40483383
H -3.10684277 1.66756556 0.94336953
H -3.55368131 0.49133174 -0.35749930
H -1.02871074 1.95653741 0.11565853
H -1.69063450 1.23225825 -1.45155894
O 2.58291665 -2.91876586 2.45613246
S 1.84887581 -3.40363174 3.68584294
O 1.67330839 -2.28525876 4.63769947
N 0.41685084 -4.15491410 3.16962969
S -0.96494839 -3.80681503 4.10906574
O -1.99718865 -4.87563661 3.82919358
O -1.53231218 -2.48227380 3.64478522
F -0.70112032 -3.80591193 5.74439674
F 2.86189103 -4.53636108 4.41075727
39
energy=-47312.17957651 config_type=Default name=Pyr14-FSI
C 4.10081563 0.18584389 0.12287764
C 2.79325019 -0.51106236 -0.09196126
C 1.59801647 0.40175595 0.15791771
C 0.39581767 -0.46851251 -0.10580399
N -0.87003861 0.15124920 0.05886176
C -0.91595952 1.18948787 1.04385416
C -1.81227457 -0.87365763 0.49294654
C -3.05456102 -0.70801418 -0.33108449
C -2.46876848 -0.26434836 -1.64556867
C -1.38452307 0.66397521 -1.19620349
H 4.41161748 0.70561477 -0.80840756
H 4.88110596 -0.61476198 0.27519351
H 4.16032980 0.81436902 1.01289676
H 2.72497913 -0.82050711 -1.15727819
H 2.70742066 -1.34786260 0.62466155
H 1.60768226 1.28490051 -0.51338994
H 1.53763826 0.73968653 1.19542600
H 0.46733007 -1.33168818 0.60911994
H 0.46824002 -0.79989331 -1.17350328
H -0.53551081 0.82244975 2.02588364
H -1.99990969 1.42284432 1.24665523
H -0.42155533 2.13825369 0.71893140
H -1.40537465 -1.89305416 0.29991107
H -2.04206481 -0.81599187 1.57505426
H -3.64173108 0.11865367 0.10536517
H -3.61083422 -1.66696955 -0.38821319
H -2.06354292 -1.14746531 -2.20576589
H -3.21375367 0.22701738 -2.28797819
H -1.82677321 1.67112990 -1.04889799
H -0.58706795 0.72655743 -1.96867102
O -1.94503865 1.16980986 -3.18423624
S -0.84219338 2.11460685 -2.87820150
O -1.21994021 3.55667969 -3.09981688
N 0.57484618 1.84165169 -3.81088021
S 1.89937280 2.50046605 -2.89533342
O 1.53863484 2.66107454 -1.44016774
O 2.25783884 3.83637442 -3.48154328
F 3.23548410 1.49654342 -2.94643394
F -0.48098779 1.95201830 -1.24807021
39
energy=-47321.09604367 config_type=Default name=Pyr14-FSI
C 2.86824128 0.43305278 0.74354190
C 2.33184265 -0.90230070 0.31427742
C 1.69521768 -0.79150830 -1.05345687
C 0.56633042 0.15976433 -1.12128162
N -0.56052705 -0.07419498 -0.30033397
C -0.89440264 -1.42724411 -0.04326392
C -0.55956946 0.70041647 0.94847869
C -2.04166060 0.80021593 1.32865577
C -2.80381741 0.64452803 0.05276614
C -1.70830406 0.56751200 -0.96296301
H 2.27491383 0.97069344 1.48043390
H 2.98991154 1.05414433 -0.17911777
H 3.87757899 0.28090821 1.22587081
H 3.21973386 -1.58356689 0.16127532
H 1.68591683 -1.37379940 1.06929823
H 1.47848627 -1.81323365 -1.37586558
H 2.52163654 -0.44535790 -1.73558307
H 0.94740259 1.18975224 -0.85220311
H 0.24823465 0.27496453 -2.18434351
H -0.46830059 -2.07816575 -0.83266736
H -0.66662894 -1.79710536 0.98675651
H -1.99268915 -1.55057668 -0.13313854
H -0.19480771 1.71943652 0.70244826
H 0.01770514 0.20668958 1.74520250
H -2.27902453 0.02038069 2.07843834
H -2.23269691 1.82006520 1.73227884
H -3.44490447 1.55102861 -0.15749232
H -3.51080462 -0.20132859 0.03571015
H -1.37738829 1.61393164 -1.17570501
H -1.98762584 0.03089780 -1.88651098
O -0.93083037 -2.38099633 2.77738295
S -0.30312766 -3.75144781 2.65841742
O -1.29541844 -4.62903483 1.96617801
N 1.15509202 -3.66761590 1.74420524
S 2.55488452 -3.95107710 2.69615769
O 3.74774072 -3.45332154 1.91055020
O 2.78895596 -5.39187803 2.98856584
F 2.51529288 -3.15021698 4.15049989
F -0.04915860 -4.37995072 4.18759524
39
energy=-47320.98010018 config_type=Default name=Pyr14-FSI
C 3.43506044 -0.10135414 -0.47605648
C 2.79194442 0.56219152 0.70132837
C 1.41130058 -0.04050775 0.99587568
C 0.57675875 0.17589785 -0.23913998
N -0.76212407 -0.34473038 -0.10899154
C -0.72060283 -1.77787122 0.12498408
C -1.46071881 -0.00156665 -1.33520040
C -2.39867951 1.12347075 -0.94653754
C -2.87845053 0.59302232 0.39876780
C -1.50814456 0.23072729 0.98799383
H 3.02178566 -1.11705685 -0.68098726
H 4.53129581 -0.17913751 -0.30517858
H 3.29923906 0.55118694 -1.36259550
H 3.40295684 0.42572157 1.61535173
H 2.72004369 1.64409575 0.52325948
H 0.92854563 0.51787891 1.82020468
H 1.53718114 -1.10749029 1.23987829
H 1.04540013 -0.32851567 -1.08381060
H 0.51585579 1.24516247 -0.45750796
H 0.21217066 -2.25363359 -0.25852255
H -1.63573101 -2.20540832 -0.34274394
H -0.78521850 -2.01720553 1.20611501
H -2.03990215 -0.91206694 -1.65366731
H -0.76683703 0.30696574 -2.14437585
H -3.23585849 1.23009892 -1.66261892
H -1.79949452 2.03336536 -0.83525488
H -3.39893949 1.32254444 1.01173369
H -3.41896989 -0.33997744 0.19956429
H -1.58342381 -0.44534504 1.85321759
H -1.03644341 1.20953750 1.21491476
O 0.54330082 -3.89495434 5.05737942
S 1.03158816 -4.00593471 3.63366331
O 1.57686409 -5.38504069 3.37824198
N -0.26229088 -3.76140038 2.51808255
S -1.73056231 -4.05814093 3.39961271
O -1.63570031 -5.39041753 4.11165018
O -2.91611684 -4.13003877 2.50347808
F -1.85712920 -2.83390275 4.53113609
F 2.26008034 -2.87566348 3.41614792
39
energy=-47319.86419864 config_type=Default name=Pyr14-FSI
C 3.43293576 0.16582221 0.52985399
C 2.62339354 -1.03203388 0.11825093
C 1.32136030 -0.65865652 -0.56219220
C 0.49916593 0.14577121 0.36469391
N -0.77034375 0.58339434 -0.12320441
C -0.74764594 1.94853775 -0.62583504
C -1.69674339 0.54908862 0.99777005
C -2.71269072 -0.51689669 0.71165089
C -1.97516025 -1.35342104 -0.31999802
C -1.37364970 -0.23309926 -1.12605440
H 2.91530198 0.67543751 1.34722153
H 3.56844514 0.79807014 -0.38945762
H 4.42430450 -0.25369742 0.86416547
H 3.26348024 -1.66669676 -0.54687736
H 2.38949028 -1.68087757 0.99387157
H 1.63556380 -0.05638487 -1.46312266
H 0.87142727 -1.59692254 -0.90682263
H 0.43423030 -0.35782233 1.35207686
H 1.07882092 1.09550807 0.56421101
H -1.83304701 2.25606020 -0.62790101
H -0.35326072 2.03007229 -1.65695792
H -0.24886887 2.62405507 0.08408199
H -2.16011759 1.53015332 1.20473995
H -1.19567357 0.25773620 1.96144379
H -3.03209992 -1.10767573 1.58273477
H -3.54077891 -0.03427282 0.15838839
H -2.64588385 -1.99968117 -0.90590283
H -1.20270069 -1.91796429 0.25695999
H -0.74596847 -0.53751816 -1.94207671
H -2.22328661 0.34391412 -1.54881347
O 1.20546574 1.76143026 -3.28802246
S 2.35585095 2.20320305 -2.41007718
O 2.22550685 1.48049787 -1.11984249
N 3.81086454 1.91730592 -3.24564132
S 5.07433547 1.27275534 -2.30908263
O 5.12208529 -0.23366974 -2.39705342
O 6.39173529 1.76915479 -2.86453699
F 4.98153250 1.69267691 -0.69153902
F 2.14553857 3.86145791 -2.19305355
39
energy=-47309.76859034 config_type=Default name=Pyr14-FSI
C 2.99656504 0.33943965 -0.39769306
C 2.34276752 -0.68645884 0.50493396
C 1.41024277 -1.59219321 -0.23804996
C 0.27749264 -0.95409651 -0.92648708
N -0.65396092 -0.21205526 -0.15909538
C -1.04238749 -0.79696537 1.09568747
C -0.33610558 1.20486660 -0.02232955
C -1.63546953 1.95407514 -0.05290536
C -2.66894146 0.87839610 -0.22867249
C -1.86149551 -0.14615289 -0.97401742
H 4.09504167 0.40978335 -0.17347185
H 2.54562745 1.35004780 -0.31172297
H 2.92561013 0.01693783 -1.46433532
H 3.14517221 -1.33747215 0.93050935
H 1.91267006 -0.14132029 1.35284647
H 2.04933094 -2.01711490 -1.07339738
H 1.18723437 -2.50149869 0.35772265
H 0.69929117 -0.26729651 -1.69598656
H -0.25580947 -1.75060829 -1.48736916
H -0.31440723 -1.48521252 1.53560971
H -1.23789375 0.00561790 1.86701542
H -2.00096242 -1.35738431 1.04246911
H 0.21425556 1.50943822 -0.94527896
H 0.15761033 1.43655376 0.91591968
H -1.73284210 2.64737581 -0.91896446
H -1.80900414 2.56584186 0.85127434
H -3.54781845 1.19727810 -0.80988919
H -2.98312077 0.53260020 0.77582834
H -2.32535701 -1.12962417 -1.08363827
H -1.55333604 0.32720159 -1.92515678
O 5.52442476 1.92042268 2.74313581
S 5.49413961 1.73584584 1.26065181
O 6.70776718 1.01077534 0.74382040
N 4.03746537 0.88803375 0.84968855
S 2.74023270 1.80362988 1.49494739
O 1.59117457 0.86968240 1.72939704
O 3.07003744 2.46447074 2.78920029
F 2.19605774 2.99949051 0.46824952
F 5.34425474 3.25396934 0.54897243
39
energy=-47291.86930740 config_type=Default name=Pyr14-FSI
C 4.01665263 -0.72890595 -0.00529479
C 2.72579337 -0.34113626 0.68204551
C 1.57425290 -0.21088510 -0.32278279
C 0.37029844 0.17101731 0.47011391
N -0.82932531 0.34655056 -0.27779422
C -0.64769285 0.99522053 -1.56183667
C -1.51335146 -0.89401768 -0.46098930
C -2.64604632 -0.94286984 0.54201512
C -2.99650589 0.49838803 0.69395016
C -1.70180416 1.21456001 0.50859348
H 4.70692748 -1.08342255 0.79559984
H 3.86902074 -1.51434312 -0.76412536
H 4.49932950 0.17800434 -0.44806693
H 2.90841895 0.65460226 1.14159833
H 2.44157677 -1.03988028 1.47513628
H 1.41559367 -1.20283761 -0.77525367
H 1.82569318 0.47237539 -1.13640566
H 0.18361252 -0.64121636 1.20168494
H 0.54990945 1.08358657 1.08610707
H -0.45732630 0.22512091 -2.33637806
H -1.62423370 1.48530317 -1.80518344
H 0.11596934 1.78821223 -1.53478363
H -1.87752989 -1.01335538 -1.51976905
H -0.88439755 -1.77359634 -0.25206969
H -3.51598089 -1.47175656 0.07984448
H -2.30307737 -1.42557457 1.46769706
H -3.65297725 0.76524526 -0.16821871
H -3.45138631 0.73705469 1.67404987
H -1.82837907 2.22401530 0.03203179
H -1.27303462 1.44454103 1.51848411
O 5.42872262 1.04646418 -0.68135492
S 5.04048575 1.07058485 -2.13581018
O 4.93440749 -0.37152035 -2.56815405
N 3.57668468 1.93641228 -2.40667270
S 2.27630661 1.29632972 -1.52340468
O 2.25187457 -0.20138623 -1.72448084
O 2.36484396 1.58813507 -0.04063082
F 0.84688788 1.97016559 -2.12165567
F 6.27856201 1.80573787 -2.97781103
39
energy=-47295.30291377 config_type=Default name=Pyr14-FSI
C 4.07451208 -0.47798797 0.49350838
C 2.92771785 0.05498915 -0.31216749
C 1.58647863 -0.23707757 0.31961319
C 0.48211557 0.31187635 -0.51759737
N -0.84564209 0.07754344 0.01355173
C -0.85394225 0.35291457 1.43372377
C -1.74631184 0.96350537 -0.70133469
C -3.11094439 0.39354637 -0.37678308
C -2.84890809 -1.09484874 -0.47035713
C -1.35545841 -1.22193419 -0.33020062
H 4.73326275 -1.04850018 -0.19469252
H 4.70291595 0.34620617 0.92229923
H 3.77756459 -1.20880050 1.28099985
H 3.03005491 1.16205988 -0.37441339
H 2.90563833 -0.37727367 -1.33169230
H 1.41452878 -1.33359097 0.41176066
H 1.57122333 0.18665304 1.33930451
H 0.52216313 -0.19262893 -1.51464258
H 0.61444725 1.39627914 -0.62989832
H -0.42156916 -0.49710856 1.99216269
H -1.82018539 0.68505547 1.82687080
H -0.16441849 1.22910722 1.58998587
H -1.62711108 2.01955649 -0.38793676
H -1.61175040 0.80111134 -1.78432687
H -3.46881511 0.71436407 0.62577312
H -3.85820912 0.68115349 -1.17241997
H -3.40855170 -1.61993427 0.32611537
H -3.21471903 -1.46244771 -1.44494062
H -0.96172782 -1.45864842 -1.35959023
H -1.02435878 -2.04332562 0.32732477
O 1.26769257 4.40802571 -0.29444929
S 1.80817394 3.00341949 -0.23791620
O 1.97535696 2.59055929 1.20843534
N 3.31431031 2.93616192 -1.05952396
S 4.59200907 2.36292308 -0.06970351
O 4.61633039 2.99581975 1.28166589
O 5.88076672 2.74252291 -0.76380345
F 4.58348413 0.71531540 0.13270145
F 0.71625420 2.01037043 -1.00513232
39
energy=-47321.17631096 config_type=Default name=Pyr14-FSI
C 3.64417476 0.35734513 -0.69755635
C 2.19362023 0.51757265 -0.22590980
C 1.63793442 -0.74562868 0.31505704
C 0.24516844 -0.72832123 0.81904309
N -0.79200092 -0.39227516 -0.13872758
C -0.50328207 -1.13204116 -1.35638178
C -2.08620303 -0.74998941 0.39402236
C -3.02391763 0.31037790 -0.11933002
C -2.17951680 1.55947767 0.06633352
C -0.81370531 1.01239938 -0.32895746
H 4.20883994 -0.36790255 -0.10118279
H 4.11321658 1.36137098 -0.73191275
H 3.63583396 -0.00442048 -1.75984599
H 2.27238438 1.28742456 0.59588747
H 1.68691120 0.93700585 -1.11257846
H 1.85025925 -1.57697192 -0.39657300
H 2.28215666 -1.01397729 1.21105044
H -0.04761789 -1.72629266 1.26582818
H 0.10281649 -0.00929353 1.66068420
H 0.06696579 -0.52258486 -2.05450256
H 0.01194244 -2.07294572 -1.08743486
H -1.43179552 -1.42983845 -1.88736922
H -2.38392855 -1.78521037 0.11178016
H -2.04802695 -0.62828187 1.50162508
H -3.94154020 0.35070670 0.50312024
H -3.26453913 0.16068891 -1.20734504
H -2.23504758 1.84773311 1.13485486
H -2.48879004 2.40688933 -0.54267454
H -0.10905483 1.48574804 0.38047503
H -0.60325810 1.29123515 -1.40159417
O -4.79226300 0.12860615 -5.44886219
S -3.58031234 0.46737959 -4.66316796
O -3.29713457 -0.54896373 -3.56834715
N -2.14099507 0.44204021 -5.64199664
S -0.81087042 0.79447807 -4.60781472
O 0.23808409 -0.23963849 -4.80812049
O -0.34589936 2.18321827 -4.90375888
F -1.27532438 0.73969177 -2.98581121
F -3.66853059 1.98414242 -3.96030126
39
energy=-47316.63309056 config_type=Default name=Pyr14-FSI
C 3.83293714 -0.81161255 0.00015330
C 2.84824915 0.19603123 -0.54756810
C 1.49387580 -0.13175343 0.07383399
C 0.42701006 0.81932470 -0.40687218
N -0.82144530 0.44002175 0.22802659
C -0.83008218 0.93078647 1.57625283
C -1.95051633 1.04505642 -0.45168413
C -3.02430339 -0.00079211 -0.56861770
C -2.51750893 -1.20630977 0.18296891
C -1.01250446 -0.99362643 0.12333499
H 3.35031565 -1.60425786 0.61097723
H 4.31175817 -1.35485024 -0.85472682
H 4.60810177 -0.35240620 0.62844757
H 3.14879292 1.20055007 -0.13989398
H 2.77706376 0.20869216 -1.63473951
H 1.23640794 -1.17074289 -0.20338936
H 1.66496924 -0.09698803 1.16912328
H 0.33460346 0.65918976 -1.49698503
H 0.67630583 1.86787688 -0.23914250
H -1.23452378 1.98074904 1.55358010
H 0.18823245 1.03658879 1.99729393
H -1.48213728 0.33184549 2.24863111
H -1.64970685 1.31932738 -1.49906285
H -2.34166275 1.94331472 0.03188288
H -3.95661577 0.31286944 -0.06910290
H -3.23141078 -0.30561683 -1.60387859
H -2.77360194 -2.16964904 -0.29912596
H -2.81815588 -1.22305133 1.24881246
H -0.57387837 -1.56688053 0.95953190
H -0.68056937 -1.30368706 -0.88001278
O -5.75850553 1.41533360 2.44468535
S -4.80935881 2.34606458 3.17391423
O -4.86788356 1.98446107 4.61569520
N -3.27413202 2.15558628 2.46546988
S -2.00837113 2.24828116 3.61777731
O -2.29740440 1.35910399 4.77883667
O -1.82579903 3.66436010 4.11524120
F -0.56259281 1.81031767 2.91998156
F -5.41965506 3.90236623 3.01465221
39
energy=-47319.90873911 config_type=Default name=Pyr14-FSI
C 4.03210999 0.49672034 0.07968591
C 2.80328594 -0.25937451 0.45512162
C 1.53844186 0.26220153 -0.23892064
C 0.43128483 -0.61037949 0.25832669
N -0.86535483 -0.29142909 -0.27362991
C -0.93580889 -0.87279405 -1.62114359
C -1.17447579 1.09943220 -0.34993976
C -2.70719785 1.06951664 -0.32115006
C -2.90922978 0.12379498 0.85607804
C -1.85042195 -0.91298825 0.59183036
H 4.47352356 0.00075294 -0.80987122
H 3.71416597 1.52479382 -0.20262269
H 4.72705137 0.53077010 0.93221847
H 2.61001060 -0.32625770 1.54666589
H 2.92143943 -1.33505014 0.13579709
H 1.43320691 1.32380430 0.11474752
H 1.71070705 0.25995723 -1.31406272
H 0.67794385 -1.65449495 0.00459998
H 0.40376169 -0.48806301 1.36457140
H 0.09500573 -1.02196130 -2.03417678
H -1.48486973 -0.22541737 -2.33241785
H -1.37549184 -1.89882496 -1.59551963
H -0.81535998 1.64126871 0.53543474
H -0.88624426 1.56721543 -1.31347951
H -3.15518622 2.04674571 -0.14534331
H -3.08497891 0.55153251 -1.22588940
H -3.93327833 -0.28603472 0.91053698
H -2.63782947 0.71526483 1.76428416
H -2.33285384 -1.79050067 0.09226866
H -1.42335711 -1.24020107 1.56112836
O -3.81497479 3.09324558 4.19620012
S -3.67564405 1.74628404 3.57785906
O -3.38557932 0.66297066 4.55444644
N -2.34199414 1.88364800 2.47273865
S -0.93291896 1.39323189 3.32391083
O -1.20169238 0.68398740 4.59925545
O -0.01649940 2.55004056 3.63145549
F -0.08236427 0.39258353 2.26705323
F -5.05846227 1.28718022 2.73389538
39
energy=-47302.85842932 config_type=Default name=Pyr14-FSI
C 3.40994810 0.48627457 0.61608094
C 2.97299465 -0.61324026 -0.28822632
C 1.51453014 -1.00244622 -0.15301670
C 0.61169313 0.14010232 -0.45038379
N -0.79090149 -0.10314201 -0.35643563
C -1.31705520 -0.98165800 -1.38275142
C -1.25201615 -0.56439501 0.91447949
C -2.30882631 0.35571391 1.42695150
C -2.72056532 1.13650077 0.20612348
C -1.42640923 1.20696321 -0.57056185
H 3.86707780 1.30078967 -0.01541858
H 2.63916019 0.95994837 1.22941053
H 4.24316072 0.20012023 1.32134989
H 3.56983224 -1.52318973 -0.00239796
H 3.23192441 -0.40501979 -1.34814675
H 1.36661451 -1.84481668 -0.84768354
H 1.35523880 -1.42385516 0.86164048
H 0.81770707 0.48741291 -1.48352877
H 0.82178378 0.94988678 0.30111424
H -1.07712026 -2.04489374 -1.18814169
H -1.06528129 -0.66236158 -2.40649669
H -2.43648466 -0.93225385 -1.24341274
H -1.70964043 -1.59226687 0.87337059
H -0.36893820 -0.63145606 1.61151169
H -3.21034231 -0.18874635 1.80176096
H -1.91992402 1.01765353 2.22109597
H -3.46506427 0.62256067 -0.40843923
H -2.99966764 2.18423256 0.47148178
H -1.53998153 1.46172780 -1.62505133
H -0.81344722 2.00385402 -0.08627856
O -2.59057255 -3.18832277 0.72492659
S -2.38642449 -2.48427358 2.04763699
O -2.34394897 -0.99810497 1.77663099
N -0.89236325 -2.92193903 2.76872654
S 0.14561133 -3.46435348 1.48507142
O -0.13572917 -2.74617043 0.21024659
O -0.13800444 -4.93988951 1.32890071
F 1.73591085 -3.33731730 1.97047374
F -3.69263324 -2.83805047 3.04003049
39
energy=-47270.31156988 config_type=Default name=Pyr14-FSI
C 3.24522060 -0.42275286 -0.05562874
C 2.44713271 0.84042379 -0.31763215
C 1.39688974 1.10264608 0.68507052
C 0.32032119 0.12652815 0.87909680
N -0.55881825 -0.19433153 -0.17508306
C -0.03820017 -0.49831237 -1.45840840
C -1.55302354 0.84868409 -0.38187533
C -2.64262189 0.62091281 0.60875596
C -2.68869894 -0.89604473 0.66021181
C -1.33038461 -1.36351345 0.27925864
H 3.84531812 -0.59544602 -0.98061561
H 3.95100130 -0.24029234 0.76063771
H 2.58728522 -1.31067596 0.14043550
H 3.22043332 1.66068124 -0.19125203
H 2.13940395 0.93808153 -1.37529038
H 0.96555301 2.10748979 0.51128809
H 1.92138340 1.21160319 1.68305470
H 0.66747245 -0.84214933 1.33634973
H -0.33953045 0.54193925 1.70397449
H -0.82086518 -1.15569889 -1.95841770
H -0.05425497 0.41485159 -2.10917552
H 0.86854378 -1.09224504 -1.51651042
H -1.00665384 1.81145315 -0.25012233
H -1.96087486 0.85407519 -1.40961909
H -3.61186113 0.95670962 0.19090722
H -2.37905214 1.05543097 1.58303926
H -2.94885394 -1.16658306 1.70672699
H -3.41520034 -1.29494673 -0.08222965
H -0.86435379 -1.85882609 1.15196626
H -1.36271075 -2.15969205 -0.50670431
O 4.59690190 3.39322437 2.05739213
S 4.37950090 1.93491369 2.28354362
O 4.31419347 1.70420909 3.75413539
N 3.02564820 1.37441437 1.42478556
S 1.52294666 1.72104168 2.13439760
O 0.66287134 2.51351918 1.19521319
O 1.59395627 2.40316805 3.45325059
F 0.72065280 0.26478929 2.40066196
F 5.74118954 1.13847397 1.72407002
39
energy=-47313.72868769 config_type=Default name=Pyr14-FSI
C 3.68027630 0.14671100 0.33325466
C 2.28621644 -0.48362591 0.47121847
C 1.62787382 -0.21452156 -0.85483003
C 0.25061942 -0.72290730 -0.99916983
N -0.75725240 -0.26816042 -0.12294472
C -0.93129191 -1.23835819 0.96341137
C -0.65924179 1.03248101 0.39930754
C -2.03710853 1.67043306 0.40278726
C -2.98012392 0.56959566 -0.05585675
C -2.01835340 -0.27960479 -0.84423753
H 3.56751572 1.25565022 0.41604236
H 4.38324203 -0.24597634 1.07965515
H 4.07920855 -0.01784790 -0.68995184
H 1.82720490 0.00229303 1.33246522
H 2.48700465 -1.56075569 0.63147179
H 1.77497475 0.84885749 -1.11783041
H 2.24270812 -0.76954429 -1.59885923
H -0.03548599 -0.58701585 -2.06430048
H 0.32380622 -1.84759613 -0.90147351
H -0.42188488 -2.19869133 0.67124504
H -1.98120897 -1.52281437 1.12945372
H -0.50266391 -0.90795694 1.91347889
H -0.32979555 1.04428222 1.48006950
H 0.01074807 1.72481217 -0.10970388
H -2.31149707 2.12478868 1.35170923
H -2.12497155 2.46280978 -0.37870553
H -3.46812608 0.05291394 0.77299608
H -3.75421204 0.92523364 -0.75239162
H -2.40482790 -1.28303635 -1.05963901
H -1.82335310 0.28755146 -1.79867191
O 1.07019144 -2.31824251 -3.76878843
S 1.41164046 -3.09833244 -2.52849802
O 0.42772964 -4.24996287 -2.48884548
N 2.97225307 -3.78509518 -2.56563720
S 4.25748933 -2.68615933 -2.61132045
O 4.67744468 -2.19318123 -1.25278643
O 5.46358535 -3.43247239 -3.14532040
F 4.02801697 -1.39733878 -3.64498224
F 1.11728844 -2.21241765 -1.14877223
39
energy=-47315.59615743 config_type=Default name=Pyr14-FSI
C 3.53442147 0.13497120 -0.41664809
C 2.88012508 -0.38771948 0.81945567
C 1.40415735 -0.71044938 0.64394633
C 0.67055503 0.51397983 0.24527090
N -0.73501491 0.38192276 0.03874018
C -1.27957542 1.72572784 -0.10700814
C -1.50239113 -0.24435129 1.04703507
C -2.73866916 -0.77112857 0.34211265
C -2.44374894 -0.76789586 -1.12440814
C -1.04128974 -0.26993226 -1.24134017
H 3.75204122 1.19920145 -0.32147817
H 2.86063493 0.01327075 -1.30640645
H 4.47402545 -0.41159489 -0.66324954
H 3.00910798 0.36169643 1.63575826
H 3.43929857 -1.29250205 1.19241031
H 1.35269172 -1.48607713 -0.15176579
H 1.08538809 -1.20388615 1.55520659
H 1.10539018 0.86778762 -0.71460487
H 0.83955579 1.32677503 0.98306248
H -0.94437428 2.30391967 0.78480462
H -2.38611843 1.71439523 -0.15737490
H -0.80536406 2.19203965 -0.98668511
H -1.84267287 0.45683597 1.84247071
H -1.03910544 -1.09557768 1.56317252
H -3.63292897 -0.17643513 0.59478895
H -2.96735741 -1.82686217 0.65177868
H -2.53272109 -1.79010238 -1.59038526
H -3.17841529 -0.11517430 -1.64575571
H -0.34145760 -1.10300598 -1.43711983
H -0.99618815 0.46017128 -2.07578376
O -1.42105593 4.66817534 1.92820704
S -1.42250807 3.15986277 2.02290495
O -2.54759149 2.61286743 1.16954130
N 0.03235433 2.47749235 1.42639732
S 1.41551176 3.01475334 2.28435306
O 2.61945047 2.33946314 1.70730334
O 1.32892817 2.65695804 3.74880651
F 1.56051129 4.68152693 2.20209604
F -1.75047647 2.71949547 3.59333818
39
energy=-47320.00408252 config_type=Default name=Pyr14-FSI
C 3.35205056 1.00648816 0.03913439
C 2.98533090 -0.33117659 -0.60037075
C 1.67839002 -0.80107483 0.02325739
C 0.65199454 0.23629522 -0.26531497
N -0.65584207 -0.02187191 0.24140759
C -0.70336426 -0.42336219 1.62306415
C -1.38813346 -1.01587100 -0.52066410
C -2.83258766 -0.72343494 -0.09847089
C -2.82964165 0.71665368 0.37258157
C -1.45616238 1.16331554 -0.03447884
H 2.89010097 1.83038428 -0.52126737
H 2.93310806 1.02405271 1.07297145
H 4.45115250 1.08687586 0.11804547
H 3.78630974 -1.07482917 -0.45271606
H 2.89715108 -0.13825674 -1.68805868
H 1.87027462 -1.00624128 1.07614527
H 1.37468247 -1.73852656 -0.52540982
H 0.55877722 0.29954479 -1.37743424
H 1.01527736 1.21682600 0.09677423
H -0.15949780 -1.36108117 1.72122300
H -1.76456635 -0.67106490 1.85099809
H -0.38697046 0.36717688 2.31786604
H -1.25424160 -0.91120773 -1.60621491
H -1.09059930 -2.03975718 -0.17215138
H -3.46861113 -0.75316726 -1.01925353
H -3.22050199 -1.43891743 0.62889445
H -3.06084468 0.84782880 1.43292712
H -3.60427410 1.33063689 -0.16903830
H -1.09445098 2.07516441 0.43615908
H -1.47431020 1.24859764 -1.15776932
O -1.35457818 3.49995869 3.71098130
S -1.12846392 3.22146575 2.24668489
O -2.16797226 2.20373005 1.86830384
N 0.40675530 2.54860173 1.92476429
S 1.70523792 3.60269518 2.28689997
O 1.63640730 4.12910927 3.70338287
O 1.82350801 4.74972130 1.34724603
F 3.14263913 2.74572140 2.21281894
F -1.34957121 4.65969704 1.44720506
39
energy=-47306.70579036 config_type=Default name=Pyr14-FSI
C 3.06311912 0.13391442 0.58631195
C 2.29370851 0.93065407 -0.47944862
C 1.54138209 0.00801199 -1.37797648
C 0.56165571 -0.86323715 -0.72815611
N -0.56223584 -0.38574582 -0.04420778
C -0.83533181 -1.30947066 1.06195374
C -0.58251871 0.91706384 0.50585781
C -2.04492303 0.97545303 1.03362581
C -2.82781160 0.16676886 0.06115491
C -1.77333686 -0.38513917 -0.86556951
H 2.36854994 -0.46839809 1.21176807
H 3.88824666 -0.43351604 0.13624664
H 3.52158126 0.87656575 1.29499023
H 1.75051891 1.71390114 0.02726193
H 3.10439307 1.37579955 -1.13418009
H 1.15393273 0.56904180 -2.26323704
H 2.32041200 -0.67359925 -1.85232820
H 1.13160971 -1.53441751 -0.01446449
H 0.16573988 -1.63300403 -1.48021967
H -0.08817294 -1.05130863 1.84397068
H -0.52615061 -2.32835516 0.70455338
H -1.85535691 -1.27940103 1.42784550
H 0.02833681 1.05692934 1.42548387
H -0.54850199 1.75960873 -0.20702559
H -2.38717843 2.04091993 1.05233937
H -2.10887219 0.63060763 2.06889404
H -3.50622396 -0.59233896 0.48821441
H -3.51976643 0.86187060 -0.50778851
H -2.02927744 -1.38187858 -1.26217216
H -1.69752764 0.30269940 -1.70698062
O -2.97342588 0.84948578 -4.02819068
S -2.81890588 -0.60499652 -3.64561600
O -4.06116895 -1.34848554 -3.97790821
N -1.53211532 -1.30061468 -4.57308497
S -0.05109868 -0.53105688 -4.19190277
O 0.08466648 -0.30380177 -2.70529941
O 1.13359742 -1.35470937 -4.61210649
F -0.02617936 0.94418565 -4.97975950
F -2.39602181 -0.69561974 -2.03817710
39
energy=-47309.06548532 config_type=Default name=Pyr14-FSI
C 3.75474448 -0.40748106 0.64598481
C 2.62771888 -0.30701354 -0.39022514
C 1.33901365 0.11716371 0.32940858
C 0.27631460 0.20024605 -0.71772630
N -1.01647875 0.58155585 -0.26862918
C -1.11947112 2.03107411 -0.39119786
C -1.38158108 0.24097589 1.05754124
C -1.99802352 -1.13592890 1.02606929
C -2.13470281 -1.44072794 -0.44340036
C -1.99234666 -0.09476840 -1.12254744
H 4.48186787 0.41592317 0.55137742
H 4.26655882 -1.38442376 0.58210403
H 3.32609951 -0.30224995 1.66485686
H 2.93856983 0.49608724 -1.08977087
H 2.51969050 -1.29452348 -0.87463076
H 1.07493969 -0.57924860 1.12483574
H 1.54196994 1.15251482 0.67057313
H 0.24628835 -0.77336233 -1.27548604
H 0.66784688 0.93124017 -1.48493144
H -2.10098952 2.39920966 -0.06998762
H -0.38660965 2.43324418 0.35267620
H -0.78248105 2.36284821 -1.37768222
H -2.20677731 0.94375210 1.37358319
H -0.61973921 0.31300067 1.82620823
H -1.33184450 -1.84332165 1.56538173
H -3.01425109 -1.16476817 1.45195797
H -3.11497121 -1.91624893 -0.70743137
H -1.33216253 -2.12842461 -0.72350412
H -1.57146363 -0.28329836 -2.13206648
H -2.95772937 0.43695385 -1.15334122
O 3.10173494 3.27816953 1.63185216
S 3.17638378 4.55628592 0.85350460
O 4.39270714 4.51879375 -0.03933091
N 1.81883704 4.77583671 -0.18471310
S 0.37179589 4.11979210 0.48116516
O -0.78635768 4.93947965 -0.04208572
O 0.27058151 2.68221684 0.04376347
F 0.37470079 4.24207513 2.13812352
F 3.37669490 5.88799355 1.85531328
39
energy=-47305.11451108 config_type=Default name=Pyr14-FSI
C 3.27354476 0.70107340 0.55729825
C 2.98267109 -0.66088540 -0.07257243
C 1.55644649 -1.08702236 0.31327148
C 0.66898482 -0.01565619 -0.23530758
N -0.71934999 -0.13216759 -0.03556250
C -1.13864206 -0.89480105 1.10872031
C -1.40622368 -0.64106734 -1.18788532
C -2.70019441 0.12762167 -1.31098094
C -2.58008953 1.31205667 -0.40292465
C -1.21673906 1.23504442 0.18637619
H 2.68356972 0.73592484 1.50878380
H 4.34183880 0.76255365 0.84723489
H 3.05374658 1.53214292 -0.11403622
H 3.64393483 -1.36902517 0.46705620
H 3.16561819 -0.69316805 -1.14490021
H 1.37299464 -2.02608762 -0.25640818
H 1.57400915 -1.20677681 1.39156284
H 1.09369717 0.96667076 0.06086620
H 0.84286422 -0.04990097 -1.35257731
H -0.39788944 -0.94788180 1.92704934
H -2.05181193 -0.45003677 1.55873473
H -1.43554465 -1.91453724 0.78866444
H -0.79276631 -0.56132043 -2.10638028
H -1.66115374 -1.70930909 -1.03925604
H -3.56909779 -0.50714966 -1.05950441
H -2.78090362 0.51442546 -2.35388808
H -3.35882071 1.26612871 0.38776531
H -2.67678145 2.28852197 -0.94718092
H -0.50340198 1.99619427 -0.24465693
H -1.26451008 1.42843481 1.28098629
O -5.69165535 -4.65524022 0.49675962
S -4.39458824 -4.25557942 1.08900974
O -3.93118671 -5.09030158 2.22482025
N -3.22032820 -4.27188847 -0.16929022
S -1.63773517 -4.02407579 0.49074856
O -1.33190884 -5.01040092 1.56141122
O -0.66760219 -4.15387650 -0.63855119
F -1.49287127 -2.47416091 1.12684485
F -4.53403856 -2.66059836 1.60465614
39
energy=-47320.62701519 config_type=Default name=Pyr14-FSI
C 3.39342873 0.45527303 0.28706618
C 2.88000292 -0.96276575 0.24538750
C 1.55508564 -0.96526779 -0.50745483
C 0.62494218 -0.06900995 0.25058219
N -0.68573437 0.04785074 -0.32314929
C -0.76943521 -0.35715147 -1.69214813
C -1.62818671 -0.76957857 0.42513253
C -2.94292336 -0.03706219 0.40478562
C -2.66333434 1.33830082 -0.12299537
C -1.15450264 1.39553020 -0.06979754
H 2.96616334 0.99910103 -0.56992812
H 4.51964070 0.44433464 0.21106091
H 3.11598406 0.96104104 1.24792063
H 3.61460410 -1.65347293 -0.20477268
H 2.72616072 -1.28103503 1.30931965
H 1.13572439 -1.99875625 -0.55052345
H 1.74933193 -0.59214260 -1.52217094
H 1.13729959 0.91409154 0.36979000
H 0.53234777 -0.48056120 1.29113978
H -0.64555359 -1.47979973 -1.68507771
H -0.03472194 0.10582751 -2.35966709
H -1.83454838 -0.17937814 -1.99996293
H -1.74181701 -1.75870861 -0.07033762
H -1.23710349 -0.98252215 1.43774071
H -3.67933584 -0.57132034 -0.22645683
H -3.32311719 0.07760594 1.45726602
H -3.06666780 2.12814748 0.54758697
H -2.98223283 1.48548376 -1.17188313
H -0.85859946 1.64002855 0.97556436
H -0.70290189 2.14591641 -0.72419873
O -2.29912251 -0.81604926 4.02747377
S -1.47419922 -2.04513768 4.23753799
O -2.21377517 -3.30981707 3.93058113
N -0.09416147 -1.98498553 3.22416292
S 1.32196677 -2.15325262 4.21943286
O 0.98545199 -2.58998452 5.60153149
O 1.91986699 -0.78187374 4.29590292
F 2.32226507 -3.22938809 3.42250109
F -1.07053223 -2.06172299 5.86848705
39
energy=-47320.46148640 config_type=Default name=Pyr14-FSI
C 3.78300791 0.59663279 0.67623467
C 2.78481110 -0.53274130 0.45701296
C 1.45620092 0.15536576 0.11984910
C 0.42900053 -0.91985151 -0.10722144
N -0.87430217 -0.41731078 -0.43432325
C -1.29494628 -1.17044231 -1.62575366
C -0.90161104 0.98642906 -0.77563186
C -2.38311263 1.32391380 -0.61256623
C -2.67785402 0.62989984 0.69557333
C -1.86511900 -0.64098204 0.59657702
H 3.57867056 1.18716570 1.57174896
H 4.78765498 0.13282075 0.72853420
H 3.74189716 1.26448332 -0.20665606
H 3.10330988 -1.06068132 -0.45623212
H 2.71393176 -1.14725414 1.35453295
H 1.64323517 0.77308415 -0.76911811
H 1.13051874 0.72649692 1.02139662
H 0.83302866 -1.66332902 -0.81803092
H 0.32988499 -1.47796977 0.86334137
H -0.51681423 -1.05826978 -2.39188042
H -2.31205802 -0.93175733 -1.94876273
H -1.28053593 -2.25397901 -1.35187061
H -0.39005264 1.60942824 -0.01376725
H -0.53581312 1.14567347 -1.79238384
H -2.43813364 2.43945234 -0.47140244
H -2.98119885 0.97664143 -1.45722616
H -2.21811153 1.22424050 1.51171305
H -3.76250782 0.45109066 0.83443790
H -1.32947261 -0.86507027 1.54367823
H -2.55350884 -1.48318016 0.30887243
O -4.59519132 -1.83705657 2.76524913
S -4.24194336 -0.50396508 3.35004211
O -5.27357212 0.46876281 2.83196941
N -2.69461118 0.05116318 2.84780300
S -1.41283489 -0.53667342 3.81455942
O -1.99074133 -1.41885399 4.89056078
O -0.64848176 0.62644889 4.39174986
F -0.32802728 -1.42617338 2.88201593
F -4.38397058 -0.61791572 5.00297586
39
energy=-47320.99656523 config_type=Default name=Pyr14-FSI
C 3.05484411 -1.41809939 1.49397714
C 1.77009559 -1.43684882 0.64870225
C 1.79047187 -0.20462652 -0.17188293
C 0.66269450 0.03679246 -1.08808511
N -0.64233674 0.16537962 -0.53359429
C -1.15569317 -1.16407007 -0.27013186
C -0.67404642 0.90258957 0.70861717
C -2.15287481 1.31782948 0.76142988
C -2.25373834 1.92361583 -0.63684455
C -1.55113903 0.86372554 -1.43587034
H 3.00619668 -2.08706215 2.35621559
H 3.28946646 -0.38198949 1.81477464
H 3.88083646 -1.74604802 0.82868880
H 1.82147565 -2.31908427 -0.05690486
H 0.90908189 -1.62848065 1.27493139
H 2.02511944 0.66949351 0.49908869
H 2.71720985 -0.27042115 -0.81886040
H 0.81591924 0.95066605 -1.72852862
H 0.60335101 -0.79529181 -1.84315344
H -2.13101109 -1.27154601 -0.83332581
H -0.46193493 -1.93965606 -0.65796434
H -1.40712688 -1.30133539 0.81515610
H -0.12530723 1.87429829 0.60512023
H -0.39234355 0.32854493 1.58760035
H -2.27751214 2.12684674 1.47960498
H -2.82281479 0.45811827 0.90237949
H -3.28814643 2.12178882 -0.94278649
H -1.61311531 2.84559634 -0.61273258
H -1.05436001 1.23165842 -2.35115170
H -2.34326188 0.14761594 -1.79446938
O 0.87345157 3.34784773 2.31802403
S 0.59472151 4.41425464 1.31537107
O -0.43613391 3.91890176 0.34582185
N 2.02412278 4.96026294 0.51331740
S 3.37330724 4.95174538 1.58650258
O 3.45193646 6.21244411 2.38600104
O 4.60694637 4.74623473 0.73795513
F 3.21354666 3.66407413 2.62893568
F -0.04285905 5.76817855 2.09201984
39
energy=-47301.79121139 config_type=Default name=Pyr14-FSI
C 3.40768992 0.46308232 0.36785774
C 2.81447454 0.00483296 -0.92018499
C 1.48483146 -0.70257839 -0.73771065
C 0.53850058 0.28055228 -0.08347176
N -0.77102759 -0.27522454 0.14604277
C -0.75564107 -1.45874067 0.95575007
C -1.48071516 -0.55536601 -1.07549558
C -2.72099848 0.27546811 -1.10381100
C -2.38859662 1.40340488 -0.16505963
C -1.54546699 0.71369179 0.86920694
H 2.87571752 1.32572482 0.84083072
H 4.42630758 0.84362462 0.14655525
H 3.55466495 -0.35502087 1.10330931
H 3.55516993 -0.64665122 -1.41882305
H 2.69725955 0.90412970 -1.56417708
H 1.66320770 -1.59667157 -0.10574664
H 1.10791529 -1.05228387 -1.71679136
H 0.42408353 1.13529412 -0.78243589
H 0.95507195 0.63829910 0.86378414
H -0.48810836 -1.29967898 2.01464852
H -1.80815501 -1.83888228 0.97825062
H -0.16982131 -2.29291587 0.48803760
H -0.80306305 -0.36232910 -1.93570659
H -1.80368951 -1.62282166 -1.15810450
H -3.61572925 -0.26336548 -0.72484463
H -2.90613516 0.61609507 -2.14091461
H -1.84017513 2.23396247 -0.65731687
H -3.29638269 1.81821163 0.35253836
H -0.89160701 1.42846387 1.41160857
H -2.21958210 0.23769275 1.62969329
O 1.23359393 0.58322489 -4.03191266
S 1.92686699 0.99768316 -2.77706990
O 0.93192603 0.88396561 -1.64547124
N 3.21833308 -0.06744217 -2.44337027
S 4.74632664 0.52977566 -2.94990677
O 4.75924216 0.85623290 -4.42729183
O 5.74186231 -0.59728180 -2.78790764
F 5.20303531 1.89821979 -2.11962235
F 2.46266089 2.59249628 -2.84010639
39
energy=-47319.45638482 config_type=Default name=Pyr14-FSI
C 4.08552771 0.63169719 -0.10394521
C 2.87740943 -0.25844282 -0.16681297
C 1.59394598 0.49329137 0.14076260
C 0.50520386 -0.52425446 0.03657899
N -0.82411458 -0.06898948 0.28376551
C -0.93792280 0.65177690 1.51673648
C -1.42042162 0.65131476 -0.80440490
C -2.90460149 0.47041070 -0.54551489
C -2.99060881 -0.97218112 -0.18260951
C -1.62777572 -1.29884876 0.32505296
H 4.94244918 -0.00511322 -0.44523951
H 4.02895272 1.48602262 -0.79775669
H 4.28621486 0.89142419 0.93683794
H 2.78024665 -0.73741460 -1.16875930
H 3.02966306 -1.09031632 0.55101868
H 1.68132506 0.95403621 1.14204514
H 1.47125335 1.26724280 -0.63360588
H 0.69678538 -1.32489904 0.80255421
H 0.56395735 -0.97226503 -0.97769188
H -0.50199081 1.66564509 1.36735934
H -0.32593296 0.15889123 2.28979494
H -1.98177831 0.74011319 1.86887795
H -1.24838691 1.74762591 -0.74889942
H -1.15891146 0.23162379 -1.78727097
H -3.25791309 1.13075867 0.25433219
H -3.52250716 0.65146725 -1.44431268
H -3.79814504 -1.21246569 0.54002477
H -3.23887856 -1.56089311 -1.11404246
H -1.18887901 -2.08016008 -0.32970580
H -1.61416629 -1.71709814 1.35129028
O -0.64442540 -3.58231011 -0.85609689
S -0.37808909 -3.10872963 -2.25228855
O -0.65614980 -1.64803189 -2.33312648
N 1.17630188 -3.50860415 -2.82700937
S 2.43484290 -2.55052931 -2.16604158
O 3.04249615 -3.19595966 -0.95133742
O 3.52910912 -2.55493363 -3.21386795
F 2.01273445 -0.96756832 -1.91318715
F -1.46628580 -3.90881929 -3.26159601
39
energy=-47320.04595363 config_type=Default name=Pyr14-FSI
C 4.00981929 -0.71116570 0.26113941
C 2.92635952 0.30009484 0.05454455
C 1.53799932 -0.31180164 0.27925923
C 0.52282269 0.75637385 0.05473763
N -0.84141069 0.38424303 0.21677743
C -1.52181105 1.23382707 1.17901244
C -1.10485302 -0.97204926 0.55442357
C -2.57611246 -1.14757175 0.16768749
C -2.88295640 0.00968646 -0.78719817
C -1.49346487 0.52763496 -1.08544416
H 4.85215593 -0.24443323 0.81272896
H 4.45713042 -1.06294902 -0.69217412
H 3.63118466 -1.56879542 0.87651249
H 3.08594234 1.15444382 0.74376506
H 2.96826989 0.64094407 -1.01167754
H 1.47323595 -0.72617043 1.28868944
H 1.43292298 -1.12610463 -0.47557891
H 0.73811314 1.60406561 0.75804873
H 0.74521361 1.18871224 -0.96200983
H -2.48310829 0.77061367 1.42499155
H -1.64044985 2.22943707 0.69136510
H -0.86991139 1.37625993 2.06695661
H -0.53790743 -1.71581980 -0.03532900
H -1.05313412 -1.16481886 1.64933552
H -2.74023564 -2.09052051 -0.38796034
H -3.24436605 -1.08853961 1.04664203
H -3.54583802 0.75665531 -0.31940865
H -3.36983102 -0.36390703 -1.71140063
H -1.46888095 1.56683986 -1.44023142
H -1.00689850 -0.20518490 -1.75909671
O 2.52765335 0.56173791 4.97635134
S 2.17337917 1.64122197 3.97839301
O 2.05975904 2.99011928 4.64279950
N 0.77710077 1.25973091 3.07093760
S -0.54953717 0.73905226 4.01352901
O -1.79576189 1.11190058 3.24100607
O -0.59598107 1.34046395 5.37874640
F -0.51762170 -0.93019157 4.13904687
F 3.44703366 1.73628913 2.87666753
39
energy=-47308.49616786 config_type=Default name=Pyr14-FSI
C 3.97596122 -0.31797191 -0.83173229
C 2.88364139 -0.33723665 0.18885494
C 1.52103010 0.00933096 -0.41523603
C 0.53207644 -0.05098920 0.72574216
N -0.81563448 0.24410760 0.36967263
C -1.13320223 1.61615373 0.70900982
C -1.17123614 0.00328449 -0.99735761
C -2.70007750 0.00984928 -0.90444153
C -2.92609556 -0.85664426 0.30725989
C -1.68613703 -0.64559076 1.13423004
H 4.91961080 -0.07150496 -0.26717730
H 3.80457450 0.51086847 -1.56151679
H 4.10269711 -1.28851590 -1.34040552
H 2.85034414 -1.31039373 0.66860187
H 3.10066124 0.40374900 0.99071710
H 1.54362123 0.96921470 -0.92778346
H 1.26103952 -0.77943465 -1.16638632
H 0.60836576 -1.03088115 1.21264858
H 0.86398382 0.69398884 1.47988265
H -1.52478308 2.20320856 -0.13590508
H -0.22194714 2.17860734 1.04987784
H -1.81468016 1.63496818 1.58523282
H -0.89342854 -0.98763056 -1.35559369
H -0.86034877 0.77393665 -1.69793619
H -3.17762816 -0.39479066 -1.82374752
H -3.09513345 1.01805097 -0.69098778
H -3.80007445 -0.52998053 0.90716213
H -3.07889458 -1.92363043 0.06570116
H -1.89209743 -0.12466099 2.09154934
H -1.17620857 -1.61946244 1.30687230
O 1.40357408 -0.03158802 -4.34659497
S 0.19445569 -0.08405125 -3.44045277
O 0.35945050 -1.28200946 -2.55766884
N -1.18679965 -0.16556101 -4.45219033
S -2.63167551 0.29897193 -3.67123815
O -3.72646734 -0.66694354 -3.97878671
O -2.50156947 0.40630319 -2.18602951
F -3.14556488 1.78775626 -4.25649337
F 0.20165646 1.35043384 -2.55941683
39
energy=-47320.08897905 config_type=Default name=Pyr14-FSI
C 3.34125650 0.94342519 -0.52697917
C 2.95894317 -0.37316720 0.07330751
C 1.55119668 -0.45921199 0.53737219
C 0.53338231 -0.23921926 -0.55943151
N -0.80035463 -0.35461697 0.05549019
C -0.87820184 -1.58394609 0.82366801
C -0.98520606 0.80305537 0.86594804
C -2.33272678 1.39671868 0.53594246
C -3.00540495 0.25426595 -0.17593090
C -1.83592221 -0.31045935 -0.96108965
H 3.45591770 0.80411039 -1.62532359
H 2.60903396 1.75729202 -0.38663950
H 4.30664856 1.32308984 -0.09662525
H 3.61155499 -0.55763226 0.94677887
H 3.17633681 -1.21111078 -0.64821548
H 1.39399711 -1.51202785 0.88698674
H 1.39456128 0.17347577 1.40624137
H 0.60128259 0.72790457 -1.06387937
H 0.55311683 -1.06015176 -1.30449389
H -0.34210211 -2.39004769 0.27335599
H -0.42059156 -1.48969250 1.82063673
H -1.91222495 -1.94704309 0.93617897
H -0.23174673 1.60087516 0.66384369
H -0.86714643 0.55811478 1.94895186
H -2.81667168 1.67611291 1.49231649
H -2.26443082 2.23175048 -0.18400369
H -3.37484052 -0.46325392 0.56348145
H -3.80956608 0.62669911 -0.83987604
H -2.06744616 -1.32325505 -1.34626770
H -1.54264499 0.39794558 -1.74785650
O 3.00851012 5.47394691 -2.75084100
S 2.75816504 4.08341871 -3.23197448
O 3.89097739 3.51386016 -4.01632863
N 1.38554074 4.15623663 -4.29216456
S -0.02851399 3.55763391 -3.47971339
O -0.94819756 4.71760260 -3.30600938
O -0.63372431 2.52269168 -4.39253108
F 0.36318936 2.93554914 -1.98942556
F 2.46091541 3.07400686 -1.92629398
39
energy=-47318.25281436 config_type=Default name=Pyr14-FSI
C 4.04381073 0.19464497 0.64065363
C 2.81129060 0.82738355 0.01277178
C 1.61174917 -0.08574488 0.18231071
C 0.42815283 0.59040379 -0.45561786
N -0.79688656 -0.15072836 -0.38011858
C -0.74241899 -1.29824225 -1.24372373
C -1.82154557 0.75995285 -0.91424812
C -3.08972471 0.41898154 -0.20660500
C -2.71417861 -0.63087775 0.79380390
C -1.23096333 -0.46676369 0.94984318
H 4.67921576 -0.25778656 -0.14907624
H 3.68410801 -0.59046253 1.32773067
H 4.68203884 0.93620970 1.16749957
H 3.03327219 1.02848631 -1.04127028
H 2.59792182 1.81169607 0.46962920
H 1.80639274 -1.07270092 -0.26378198
H 1.41459530 -0.22897360 1.26314493
H 0.24333014 1.56388283 0.04008897
H 0.60578822 0.81875623 -1.52070266
H -1.57823032 -2.01005728 -1.00943095
H -0.95793638 -0.92494505 -2.28559002
H 0.19186143 -1.85740398 -1.23197154
H -1.56146411 1.81379148 -0.69601328
H -1.88382310 0.60780779 -2.00595859
H -3.52787604 1.32945298 0.29639336
H -3.85883482 0.07157392 -0.93211811
H -2.99537076 -1.64789345 0.50460556
H -3.25543542 -0.41021308 1.73420090
H -0.97607911 0.29891520 1.67819222
H -0.84275995 -1.43914584 1.30933733
O -4.94640139 -5.22307155 1.62631823
S -3.90854734 -4.13214684 1.77748832
O -4.57715313 -2.79025788 1.56595771
N -2.69317271 -4.42810404 0.61190393
S -1.15117977 -3.82305594 1.04646452
O -0.15841497 -4.43977117 0.08758770
O -1.14547557 -2.33218352 0.91884209
F -0.75162403 -4.19414868 2.62520391
F -3.35370142 -4.21185720 3.34485325
39
energy=-47318.72401498 config_type=Default name=Pyr14-FSI
C 4.09008649 -0.45043396 0.24862883
C 2.88279077 0.38245046 -0.03442205
C 1.60175640 -0.46656771 -0.03417977
C 0.50388367 0.50058530 -0.32794131
N -0.82144933 -0.01814192 -0.39020563
C -1.05053353 -0.94791527 -1.45247416
C -1.63933767 1.19470812 -0.59007289
C -3.04437436 0.74081374 -0.40351392
C -2.88258414 -0.26359070 0.71947379
C -1.36632189 -0.45091320 0.86240453
H 3.89641200 -1.37526294 0.79555788
H 4.86465438 0.10668699 0.83363047
H 4.61937146 -0.68131588 -0.71974690
H 2.99622633 0.89883720 -1.00713331
H 2.83471756 1.19070951 0.74113002
H 1.74984697 -1.21301533 -0.83624255
H 1.50287921 -0.99500573 0.92173651
H 0.50381851 1.25894780 0.49952807
H 0.72835760 0.98292901 -1.30295101
H -0.72642827 -0.51544843 -2.40169545
H -2.11053510 -1.24833951 -1.43422713
H -0.44673167 -1.85208061 -1.24348737
H -1.40520863 1.72431809 -1.50849247
H -1.32019893 1.84297993 0.27865075
H -3.42438385 0.30896108 -1.33418697
H -3.71378953 1.58433611 -0.15351178
H -3.25553306 0.24056304 1.63610673
H -3.40049273 -1.21016997 0.50369410
H -1.16592293 -1.50764228 1.09642666
H -1.00097571 0.23801708 1.65308404
O -3.57319449 3.56406716 2.09562055
S -2.94579137 2.30746404 2.66032868
O -3.07298388 2.27956411 4.14740100
N -1.31992377 2.24244959 2.11474546
S -0.18423603 2.70668554 3.31421740
O -0.70798402 2.43583679 4.69253366
O 1.05273737 1.86750625 3.08869066
F 0.20274473 4.34177355 3.21317816
F -3.74864998 1.00444487 1.95779827
39
energy=-47311.97256027 config_type=Default name=Pyr14-FSI
C 3.71277340 -0.07303608 -0.10894167
C 2.27074050 0.11801650 0.37306087
C 1.51065860 0.92425284 -0.63195818
C 0.09857785 1.22383065 -0.33200158
N -0.75757868 0.05759545 -0.21486205
C -0.41515567 -0.85375875 -1.28852126
C -0.74510363 -0.53281872 1.07071021
C -2.16403362 -0.61810266 1.61427029
C -2.93842971 -0.54955571 0.28859240
C -2.14724111 0.52021437 -0.39338802
H 4.25392960 -0.52291492 0.73252943
H 3.66432889 -0.78402504 -0.94350257
H 4.16131595 0.86854757 -0.47449408
H 1.87742186 -0.85755040 0.61826247
H 2.36903956 0.72228444 1.29583103
H 2.03031404 1.92313005 -0.79255847
H 1.57255812 0.38815272 -1.63193804
H -0.37013530 1.85166858 -1.14924142
H -0.01086467 1.75369171 0.65259915
H -1.37388164 -1.41783575 -1.49358268
H -0.22100020 -0.32466521 -2.24030676
H 0.38593356 -1.55266370 -1.08009443
H -0.16181143 0.11140638 1.75902847
H -0.27274224 -1.54577693 1.09889342
H -2.36807022 -1.53405108 2.17798295
H -2.44640193 0.30129070 2.16706309
H -2.96619474 -1.50310010 -0.22711346
H -3.98345448 -0.19537372 0.45298371
H -2.20253298 1.45499340 0.17163583
H -2.36295968 0.64615340 -1.47093866
O -2.23376860 3.02359527 3.79863962
S -1.26185799 3.06772704 2.67468251
O -1.54439396 4.30256680 1.87724652
N 0.37729978 3.12446512 3.23889603
S 1.43726321 2.34326446 2.10300923
O 2.55472086 1.73190651 2.91190367
O 2.03929807 3.32650207 1.14542490
F 0.65340103 1.19978044 1.19133239
F -1.42385001 1.66539370 1.79343753
39
energy=-47316.39912051 config_type=Default name=Pyr14-FSI
C 3.93958754 0.82311551 -0.75546435
C 2.89925243 -0.13742084 -0.21252081
C 1.48978813 0.44231564 -0.35517575
C 0.57406257 -0.61768332 0.22226108
N -0.81075868 -0.27790858 0.18931251
C -1.41248597 -0.30711561 1.50405257
C -1.49229042 -1.26934895 -0.65626431
C -2.80074467 -0.62221613 -1.04787802
C -2.67277333 0.78584359 -0.52791743
C -1.14592403 0.93966196 -0.47996847
H 3.95191451 1.73229672 -0.13192585
H 3.74309382 1.12348100 -1.80112651
H 4.89783815 0.25819898 -0.73202226
H 2.97405268 -1.12458983 -0.70067453
H 3.15178229 -0.29033201 0.85467410
H 1.27840005 0.67352085 -1.41534711
H 1.37124736 1.33847144 0.25867823
H 0.79127167 -1.59434076 -0.29663940
H 0.87296284 -0.72807777 1.29061368
H -0.76431649 -0.87163605 2.22538724
H -2.38431382 -0.84685171 1.47100919
H -1.58706992 0.71286311 1.90137706
H -1.65354180 -2.15633097 -0.01389729
H -0.85365644 -1.45289662 -1.52618395
H -3.60976416 -1.19985920 -0.59953056
H -2.90654352 -0.63293865 -2.14412026
H -3.13692570 1.55341220 -1.17393800
H -3.05881459 0.90739645 0.50200869
H -0.90735584 1.86699040 0.07573557
H -0.73797465 0.97197914 -1.50276250
O 0.21941239 -1.04046193 -3.77405215
S 0.94566700 0.17706514 -3.28168433
O 1.23427073 1.04062019 -4.45826127
N 2.42178654 -0.29840026 -2.56226491
S 3.75151908 -0.29338520 -3.63740313
O 4.96433718 -0.71006361 -2.83700203
O 3.55435055 -1.34609110 -4.69894615
F 3.98166943 1.18333222 -4.37218317
F 0.05919375 0.99100764 -2.10865491
39
energy=-47320.35087250 config_type=Default name=Pyr14-FSI
C 3.61802690 -0.50884522 0.77813703
C 2.20356414 0.07788766 0.64441886
C 1.79375789 0.11764693 -0.81549828
C 0.43483399 0.67860679 -1.02460032
N -0.66347908 0.01672976 -0.39876645
C -0.45691446 -1.36714598 -0.06029991
C -1.04129931 0.72780137 0.82514233
C -2.52954975 0.81111087 0.87928422
C -2.95634377 -0.16501316 -0.22165773
C -1.87870200 0.13205803 -1.23347584
H 4.06296405 -0.51666248 -0.24946008
H 4.23033966 0.10721585 1.46577920
H 3.53059167 -1.57348715 1.10664696
H 2.23119484 1.11536117 1.03338297
H 1.53266749 -0.49225180 1.28318714
H 2.56361859 0.80261164 -1.30784148
H 1.95475782 -0.84672056 -1.33769927
H 0.36709705 1.75600210 -0.71717166
H 0.20931685 0.67063075 -2.13232714
H 0.48088384 -1.79567769 -0.40901141
H -1.26294481 -2.01442593 -0.52928697
H -0.62258296 -1.51795697 1.03760817
H -0.71906926 0.12452084 1.72048803
H -0.51807671 1.70402824 0.88183463
H -2.96478822 0.54326939 1.85030001
H -2.84645286 1.81923096 0.53789053
H -3.94695213 0.19873468 -0.58181747
H -2.99206775 -1.19941593 0.10983601
H -1.97170071 1.18509017 -1.53954940
H -1.84269104 -0.59093434 -2.06618405
O -2.67341127 4.22466174 3.50273310
S -2.25873857 2.80611444 3.69046390
O -1.79252106 2.63902337 5.10523277
N -1.04587965 2.32385782 2.54740376
S 0.49487547 2.99009580 2.92542598
O 1.56075912 1.96644280 2.59843559
O 0.77715870 4.17341808 2.04688073
F 0.67014672 3.31958336 4.54045918
F -3.56392309 1.76600132 3.45880902
39
energy=-47319.21041998 config_type=Default name=Pyr14-FSI
C 3.97543624 -0.55845625 0.48714080
C 2.74646126 -0.51711220 -0.35869809
C 1.54405292 0.03966752 0.41517707
C 0.37892871 0.02871326 -0.54301669
N -0.85259585 0.52122550 0.00832113
C -0.77246623 1.88641542 0.47820970
C -1.39179578 -0.28012617 1.06401635
C -2.40172739 -1.23461944 0.47638795
C -2.87213749 -0.50581727 -0.73782309
C -1.81982678 0.50432231 -1.08008981
H 4.33530830 -1.58758246 0.63764667
H 3.86817427 -0.01373595 1.45385902
H 4.79139097 0.00358270 -0.04056933
H 2.51402192 -1.56236370 -0.69102752
H 2.90177871 0.05664610 -1.28009249
H 1.32524158 -0.59973927 1.29426818
H 1.78200574 1.04134506 0.77616041
H 0.62568723 0.65008073 -1.42757778
H 0.19231220 -0.99744768 -0.89548372
H -0.43069126 1.99224624 1.51654786
H -0.22902616 2.50224660 -0.26017159
H -1.82645239 2.27717344 0.46830027
H -1.97151750 0.36877750 1.78343670
H -0.66734757 -0.89083456 1.61987183
H -3.28335491 -1.35809806 1.15071639
H -1.90768049 -2.19117337 0.23206954
H -3.00457974 -1.28443634 -1.53961446
H -3.86114431 -0.01063222 -0.59059631
H -2.30035734 1.49791501 -1.23795384
H -1.38809885 0.22181755 -2.05044055
O 2.19934154 6.11132739 -0.63067547
S 1.81570597 4.67281051 -0.70272787
O 1.21860053 4.21124316 0.58660081
N 0.66123322 4.50293011 -1.95498300
S -0.91155858 4.60433407 -1.26104655
O -0.92936119 3.85546157 0.03981285
O -1.94417641 3.92748482 -2.13166398
F -1.34780125 6.17038754 -0.87773801
F 3.16942391 3.75587271 -1.00611730
39
energy=-47313.71573581 config_type=Default name=Pyr14-FSI
C 3.90777751 0.50213115 0.08773579
C 2.84633771 -0.60094369 0.06094347
C 1.49024982 0.04326084 -0.07744564
C 0.36133040 -0.95402600 -0.11477328
N -0.87102125 -0.20097513 -0.24906909
C -0.82853699 0.43259836 -1.53770264
C -2.04755611 -1.04432666 -0.22330656
C -3.11771243 -0.04084376 0.14612442
C -2.44282044 0.65545930 1.32550824
C -0.99994084 0.68795388 0.86618494
H 3.47683450 1.42017992 0.55695473
H 4.24684361 0.79198457 -0.91985259
H 4.81894175 0.18213424 0.65168955
H 2.88486807 -1.09930066 1.04218321
H 3.07637857 -1.25343658 -0.79258188
H 1.50771241 0.61191724 -1.03808622
H 1.32680167 0.73400279 0.77170432
H 0.37828369 -1.62152225 0.74671455
H 0.52105522 -1.58777850 -1.02646979
H -0.39937597 1.44140600 -1.53169955
H -1.85022295 0.48739891 -2.00948471
H -0.22682281 -0.21288381 -2.24269246
H -2.25301338 -1.56636744 -1.15434239
H -1.93619618 -1.69702938 0.67652600
H -4.03981265 -0.52112221 0.52801909
H -3.31240683 0.72210414 -0.60637951
H -2.60041751 0.03180379 2.22295851
H -2.85040180 1.67871771 1.45850543
H -0.41178716 0.26456756 1.73016733
H -0.65536960 1.71293569 0.65196671
O -4.35430444 -1.20089345 -3.52730706
S -4.28137958 -2.69564203 -3.30988040
O -5.09039071 -3.32790488 -4.41292760
N -2.68499007 -3.29682830 -3.43805180
S -1.61059960 -2.54412247 -2.33441420
O -1.60853213 -1.05056506 -2.57168439
O -2.05783013 -2.72682024 -0.90117058
F -0.06684360 -3.09676102 -2.58521990
F -5.01905896 -3.12545964 -1.86668135
39
energy=-47319.20563377 config_type=Default name=Pyr14-FSI
C 3.95790472 0.13683936 -0.37766819
C 2.81102885 -0.67239599 0.14650081
C 1.53096717 0.11229572 -0.06198301
C 0.40482863 -0.74262008 0.48098971
N -0.87849666 -0.08533815 0.33272625
C -1.02950435 0.81658430 1.43555798
C -1.97759986 -1.01053175 0.32220838
C -3.08778474 -0.11417616 -0.22513142
C -2.42264165 0.78287401 -1.24421544
C -0.95399705 0.52837082 -0.95958839
H 4.94157693 -0.31455561 -0.13718161
H 3.83647027 0.20178361 -1.49125092
H 3.94466901 1.12032473 0.10801452
H 2.90412908 -0.90770895 1.22125941
H 2.67780806 -1.62113867 -0.42256044
H 1.64537554 1.04927854 0.48909357
H 1.44895134 0.27228635 -1.14976586
H 0.40123363 -1.71576085 -0.02530147
H 0.65629461 -0.92900280 1.56344175
H -1.78161490 1.59424473 1.29010355
H -1.35382803 0.19715102 2.31135736
H -0.05294636 1.24901885 1.75037313
H -2.18477071 -1.35561914 1.34775092
H -1.72832933 -1.80263908 -0.38463318
H -3.50079166 0.46239993 0.62507160
H -3.82707251 -0.74148298 -0.73609510
H -2.70972392 1.83463573 -1.16324878
H -2.70537250 0.46861688 -2.28146593
H -0.32296397 1.43016154 -1.06174493
H -0.64379963 -0.24389592 -1.70261428
O 2.15100971 3.75012802 -4.13004150
S 1.44995068 3.03263999 -3.00031131
O 2.46779726 2.10081026 -2.40034860
N 0.11459477 2.19363797 -3.68019410
S -1.38539240 2.65063219 -2.98469610
O -2.32234564 1.48224755 -3.18442470
O -1.26269214 2.89850108 -1.51656359
F -2.07746147 3.96869450 -3.72335891
F 0.97240682 4.11859355 -1.81584306
39
energy=-47320.17876129 config_type=Default name=Pyr14-FSI
C 3.42345926 0.48436874 0.69650331
C 2.98256002 -0.68064797 -0.13529881
C 1.47857574 -0.94260836 -0.03837635
C 0.69234444 0.23122754 -0.49691795
N -0.72875273 0.07077464 -0.43914061
C -1.34529140 -0.19419347 -1.71971232
C -1.19223241 -0.89226911 0.52904526
C -2.64051137 -0.47624708 0.76956951
C -2.71822548 0.99610014 0.45697402
C -1.27354413 1.30570029 0.12800748
H 4.28049893 0.19735930 1.37070549
H 2.64739138 0.95835994 1.30124315
H 3.87551796 1.29514011 0.05461363
H 3.22707874 -0.45529701 -1.21291365
H 3.52944048 -1.58348979 0.20378726
H 1.30039545 -1.17311049 1.03372239
H 1.27285670 -1.87460641 -0.57461655
H 1.06252603 1.13358925 0.02944317
H 0.94488490 0.39970516 -1.58157369
H -1.27134893 0.66635379 -2.40295754
H -2.42964960 -0.34024631 -1.52513952
H -0.93301146 -1.11605794 -2.12645037
H -1.12124181 -1.91545661 0.14924195
H -0.63747588 -0.69145415 1.46736038
H -3.34182258 -1.09041626 0.16229076
H -2.86009211 -0.67441406 1.84487828
H -3.03535306 1.54738634 1.36685029
H -3.34028012 1.22682203 -0.43442486
H -1.13108242 2.14849707 -0.54900536
H -0.71761455 1.43913066 1.08958355
O 4.49440732 -1.20926318 3.82070945
S 4.09908898 -2.64950970 3.68494262
O 3.87896516 -3.17653851 5.07589283
N 2.70832386 -2.86188003 2.69183910
S 1.34742177 -2.82765040 3.77199855
O 0.10162140 -3.10973089 3.00992909
O 1.63413744 -3.87216243 4.82532338
F 1.34306718 -1.28681402 4.45534873
F 5.35360847 -3.50576346 3.01390338
39
energy=-47316.44511403 config_type=Default name=Pyr14-FSI
C 3.44450604 1.20738903 -0.49477483
C 2.25986270 0.41177859 0.07128943
C 1.57787633 -0.38105215 -0.98937071
C 0.43675564 -1.15743432 -0.44716156
N -0.62156073 -0.42351092 0.16393671
C -0.39950373 -0.17378121 1.57961830
C -1.81029871 -1.28903834 0.07313711
C -2.97426322 -0.39901339 -0.19659505
C -2.44472330 0.95308779 -0.54700148
C -0.95706526 0.81893480 -0.45953016
H 3.98325949 0.63640932 -1.25660637
H 4.13463679 1.38477705 0.34589027
H 3.11282320 2.19542818 -0.85580687
H 2.71842160 -0.31981191 0.78134205
H 1.65829586 1.13976546 0.61086169
H 2.34558816 -1.13959264 -1.33331907
H 1.34869746 0.21286923 -1.88477721
H -0.01808070 -1.81597821 -1.24590487
H 0.80059532 -1.90711405 0.31678885
H -1.15655465 -0.70275977 2.19550418
H 0.58548636 -0.59994336 1.84459072
H -0.38238328 0.89382233 1.82349208
H -1.89782137 -1.95693954 0.92808695
H -1.71291258 -1.96566796 -0.82620195
H -3.63727834 -0.79486108 -1.00612944
H -3.63060895 -0.39102942 0.71154924
H -2.79019903 1.23026278 -1.57336544
H -2.86847966 1.66864868 0.19603295
H -0.48348291 0.97638922 -1.45468121
H -0.62158853 1.68796580 0.18078508
O -0.51534053 1.66403491 4.54158199
S -0.46938435 2.35398654 3.20358030
O 0.36143906 3.60416669 3.39494632
N -2.03283866 2.70547900 2.59448404
S -3.25555723 1.68934141 3.23403223
O -2.71573487 0.35091979 3.67545894
O -4.26500875 1.45204839 2.13289665
F -4.10644542 2.43045398 4.48508834
F 0.40430840 1.35030716 2.18650500
39
energy=-47311.88128082 config_type=Default name=Pyr14-FSI
C 3.43880580 0.03249572 -1.29730446
C 2.92410918 0.11758694 0.08314941
C 1.50868760 0.56363034 0.24464035
C 0.48545215 -0.29676451 -0.42007913
N -0.83058684 0.26845028 -0.17055233
C -0.81103424 1.70925109 -0.05373626
C -1.32559304 -0.28532353 1.04719451
C -2.34934383 -1.33234651 0.70163237
C -2.64636169 -1.16191696 -0.75226698
C -1.75700353 -0.04525505 -1.22634971
H 2.82598820 -0.51474680 -2.01941071
H 3.72602830 1.01829444 -1.74629094
H 4.40603232 -0.53317887 -1.24847286
H 3.12004068 -0.82752784 0.62985126
H 3.55100042 0.87758213 0.60728948
H 1.38062080 1.59995815 -0.13168594
H 1.30051165 0.60405867 1.33487042
H 0.62172090 -0.27316397 -1.53549306
H 0.43505895 -1.32672577 -0.06376064
H -0.32962040 2.07746187 0.87271023
H -0.40522162 2.14174398 -0.98700203
H -1.90205302 2.00132705 -0.03047222
H -1.79818402 0.45016960 1.74137286
H -0.53458028 -0.78861376 1.66689266
H -1.93431112 -2.36872987 0.84398243
H -3.25135128 -1.26810877 1.34689093
H -2.47104118 -2.05967633 -1.37757305
H -3.73095375 -0.92737609 -0.84179691
H -2.43438561 0.81687488 -1.46910163
H -1.21243148 -0.26943050 -2.16753935
O -0.78900340 -3.56889104 2.31106928
S 0.31481991 -2.55813174 2.53261568
O -0.05521425 -1.33232481 1.78521825
N 1.76485326 -3.26837652 1.98957814
S 3.18582449 -2.50858014 2.56417989
O 3.09781579 -0.99982427 2.50873774
O 3.54250834 -2.93529801 3.97032161
F 4.47039367 -3.03817364 1.60860683
F 0.31778763 -2.18322526 4.15741133
39
energy=-47320.79672734 config_type=Default name=Pyr14-FSI
C 3.68043724 0.29316987 0.36308207
C 2.31724672 0.23670408 -0.33503305
C 1.57729744 -1.02377077 0.04064347
C 0.24106000 -1.17416072 -0.58279412
N -0.72521043 -0.15170649 -0.27774162
C -0.60533541 1.02421051 -1.08031429
C -0.80600287 0.16599122 1.11731221
C -2.19843944 0.74689304 1.26031252
C -2.97048261 0.21791541 0.07092565
C -2.02621274 -0.75114098 -0.53229182
H 4.36109156 0.88003772 -0.26469619
H 4.10592942 -0.73225877 0.46651022
H 3.61790779 0.80028484 1.34312940
H 2.50700953 0.23407178 -1.42708807
H 1.77985268 1.12999910 0.01990941
H 2.21712208 -1.86303030 -0.36386942
H 1.58825778 -1.19435613 1.13485188
H 0.34082127 -1.17613744 -1.69760994
H -0.19966284 -2.15403796 -0.31045478
H -0.41635086 1.94432502 -0.49019971
H -1.52321379 1.18247556 -1.72042375
H 0.25278736 0.92173730 -1.80946441
H -0.77322595 -0.77446437 1.70805203
H -0.08092278 0.89573306 1.48955366
H -2.70173161 0.34079138 2.17034825
H -2.19073323 1.85194666 1.26625197
H -3.22476531 1.03395077 -0.63714477
H -3.93215522 -0.24721035 0.37327456
H -2.02149037 -1.69629271 0.08238914
H -2.19088541 -0.96167032 -1.60539289
O -0.47187846 -2.49855396 5.02451174
S -0.51927793 -3.40087882 3.81360124
O 0.78461052 -4.16997156 3.79675659
N -1.78526773 -4.53755990 3.91719505
S -3.32416822 -3.97166497 3.50479740
O -3.95539907 -4.93172135 2.52268718
O -3.37159551 -2.61240416 2.91773942
F -4.30681650 -4.00604395 4.87201434
F -0.54797244 -2.49094185 2.42041710
39
energy=-47320.90285186 config_type=Default name=Pyr14-FSI
C 3.29943291 -0.29031747 0.86606242
C 2.96066203 0.55461320 -0.34137870
C 1.53545705 0.23846309 -0.80934813
C 0.59636943 0.55070140 0.31702817
N -0.77515361 0.31059836 0.04384625
C -1.55758974 1.43751595 0.52029093
C -1.27369816 -0.84282976 0.78594624
C -2.48117212 -1.34656177 0.02930388
C -2.20038829 -0.95536210 -1.38782219
C -1.12344320 0.09319313 -1.33264656
H 4.37227856 -0.59595573 0.87095867
H 2.62568298 -1.18053857 0.91955750
H 3.12706350 0.29858704 1.77696011
H 3.70315586 0.35968906 -1.14413462
H 3.00497771 1.63983739 -0.04563387
H 1.37092802 0.92797060 -1.67542156
H 1.53786372 -0.78777888 -1.16874444
H 0.91070948 -0.07761499 1.19380652
H 0.75997165 1.60763321 0.59146460
H -2.60832032 1.24303834 0.18582725
H -1.62191914 1.45236661 1.64014140
H -1.18052754 2.40256178 0.13334603
H -1.65105388 -0.51203112 1.79509524
H -0.49976206 -1.60195738 0.95727270
H -3.40897987 -0.81708888 0.34359871
H -2.63284330 -2.42861431 0.17197554
H -3.12096188 -0.62112588 -1.94025371
H -1.81467891 -1.86940750 -1.91512830
H -0.29533130 -0.20552243 -1.99007740
H -1.55872958 1.01593761 -1.79331450
O -0.47910896 3.84457558 0.30566925
S -0.38243798 4.35348575 -1.09226150
O -0.30663373 5.84565084 -1.04289063
N -1.80951289 3.97570943 -2.00954688
S -3.14890989 4.17939827 -0.92678537
O -2.74109160 4.06154740 0.50894493
O -4.13104067 3.07917889 -1.24343951
F -3.86696613 5.66042186 -1.23315973
F 0.90494740 3.65152464 -1.87089220
