39
energy=-47293.64317745 config_type=Default name=Pyr14-FSI
C 3.97452229 0.61714761 0.52336190
C 2.86816843 -0.16524263 -0.10496160
C 1.47873414 0.27152053 0.38735582
C 0.50714201 -0.60445527 -0.33442799
N -0.85773980 -0.40935481 -0.06205831
C -1.59258123 -1.48835917 -0.71801128
C -1.33429481 0.82484394 -0.63060648
C -2.43544481 1.33185323 0.27528056
C -2.72169863 0.09353212 1.11943810
C -1.27069642 -0.39017583 1.29455852
H 4.65852675 1.09389363 -0.23391118
H 4.62392674 -0.05344823 1.13022691
H 3.61800611 1.41924540 1.19852115
H 2.95025303 -0.02716264 -1.21462096
H 3.01744590 -1.24642309 0.06088086
H 1.50847688 0.19340853 1.46881881
H 1.31070465 1.33160227 0.10625454
H 0.74896111 -1.67653251 -0.17661438
H 0.66655444 -0.43552938 -1.42153104
H -2.41219853 -1.10532035 -1.37576111
H -0.94692480 -2.09230625 -1.39576487
H -2.01757579 -2.20237877 0.01891667
H -1.80657356 0.64628449 -1.62989954
H -0.52435689 1.56094410 -0.75450356
H -3.32963724 1.64792295 -0.28345001
H -2.06003412 2.13229324 0.96492583
H -3.20311596 0.32559680 2.07164154
H -3.29154880 -0.59253290 0.46367815
H -0.82522158 0.37446216 1.94107473
H -1.30177950 -1.37532919 1.79755747
O -2.80630092 2.47286712 0.38733008
S -2.56710803 3.21995800 1.64914868
O -3.53467375 2.70923398 2.69448621
N -0.99278608 3.00772223 2.28220197
S 0.23539699 3.00770502 1.09410486
O -0.26962080 3.24237781 -0.29059906
O 1.00636182 1.71188811 1.17815480
F 1.31272808 4.23442416 1.48710265
F -2.96551898 4.82128596 1.41026002
39
energy=-47264.20723827 config_type=Default name=Pyr14-FSI
C 3.44930908 0.44331610 -0.33399404
C 2.89518129 -0.35203660 0.80226432
C 1.41185457 -0.10158954 1.05070331
C 0.67154812 -0.47651748 -0.19359624
N -0.72992173 -0.31245660 -0.15766752
C -1.33287182 -1.48637689 -0.76672219
C -1.32361220 -0.17558406 1.13507955
C -2.67544372 0.45936713 0.87019884
C -2.42609701 1.35181387 -0.31797202
C -1.18515588 0.81123068 -0.96627687
H 2.77421757 1.26212978 -0.69531888
H 4.43730498 0.89471332 -0.03131777
H 3.69775638 -0.16501192 -1.24036807
H 3.49227332 -0.15326184 1.73824166
H 3.08857545 -1.42372360 0.59247212
H 1.14831980 -0.68731480 1.93354424
H 1.29222033 0.97216480 1.30006917
H 1.06510377 0.19405491 -1.01157941
H 0.97582360 -1.49328170 -0.49160763
H -1.31930141 -1.35885774 -1.85973986
H -0.72084251 -2.40554947 -0.55245274
H -2.35786358 -1.66557916 -0.41437929
H -1.50444657 -1.16930678 1.59734152
H -0.79717049 0.52994240 1.80579866
H -3.45990642 -0.27303751 0.68117891
H -3.00847909 1.04678699 1.77342597
H -2.32328337 2.39819739 0.01419006
H -3.33034050 1.27537037 -0.95644941
H -1.49106272 0.48377326 -1.99682362
H -0.41368928 1.57662473 -1.09652732
O -2.48918001 -3.14161881 -1.13799698
S -2.01152917 -2.54764997 -2.42605189
O -0.83877659 -3.38256302 -2.89292742
N -3.21093211 -2.50776938 -3.64505106
S -4.80672542 -2.68739256 -3.06427427
O -5.67552961 -2.83414294 -4.29733602
O -5.32375696 -1.48499279 -2.34360212
F -5.04232710 -4.06151504 -2.16199754
F -1.37718326 -1.01756512 -2.12910501
39
energy=-47317.87716245 config_type=Default name=Pyr14-FSI
C 3.56432638 -0.36199651 0.58855164
C 2.28377985 -0.53876375 -0.24216273
C 1.49030796 0.71917981 -0.03924781
C 0.19453719 0.79720684 -0.74722657
N -0.79979418 -0.17047285 -0.47086915
C -0.67766105 -1.39539690 -1.20895082
C -2.07879605 0.43066533 -0.80790844
C -2.71346296 0.92266194 0.44325115
C -1.74802084 0.60011931 1.53452035
C -0.94790892 -0.52375790 0.91215385
H 4.39923303 -0.84907008 0.06047827
H 3.47083238 -0.86670274 1.57699652
H 3.76226917 0.70373172 0.79548193
H 2.59719964 -0.62957157 -1.30588168
H 1.83643896 -1.45604284 0.13703939
H 2.12945480 1.52714327 -0.45789668
H 1.43803394 0.95430976 1.04531435
H -0.23137172 1.80974170 -0.58897488
H 0.40533513 0.75037084 -1.84445976
H -0.06744273 -1.30648416 -2.12860437
H -1.69062028 -1.71920968 -1.52251243
H -0.32168656 -2.22908296 -0.54898050
H -2.73940103 -0.26375001 -1.36205178
H -1.96288218 1.32442613 -1.48832600
H -3.65156660 0.36084549 0.61063692
H -2.96777405 2.00065435 0.42647329
H -1.05354210 1.40979439 1.79624207
H -2.27924425 0.20163995 2.43442975
H -0.04622700 -0.77109456 1.45613669
H -1.59434593 -1.43109432 0.94634744
O 0.38633058 1.47382008 -4.75364087
S -0.01494241 1.96832058 -3.38437608
O -0.17432859 3.46027681 -3.48330079
N 1.35475372 1.70768986 -2.36049353
S 2.68821069 2.49258066 -3.10362607
O 2.31823600 3.18914735 -4.39790466
O 3.79776138 1.55269111 -3.45806386
F 3.24394920 3.64243436 -2.01820905
F -1.33661713 1.19997759 -2.77303332
39
energy=-47319.88640564 config_type=Default name=Pyr14-FSI
C 3.68743329 0.57540831 0.65711808
C 2.27112316 0.64059467 0.09545793
C 1.77835975 -0.74023860 -0.25816479
C 0.41738789 -0.81741063 -0.81807046
N -0.67021054 -0.35025318 -0.03616022
C -0.55756994 -0.47728968 1.37497581
C -1.90882630 -1.05581161 -0.42406297
C -3.01053031 -0.18192671 0.14755044
C -2.42397966 1.20929741 0.23981095
C -1.07676746 1.00257898 -0.44052860
H 4.17905606 1.57150975 0.55526219
H 4.24754284 -0.14102246 0.02178693
H 3.68214217 0.29195993 1.72905183
H 1.67819693 1.12994720 0.89339768
H 2.34690145 1.29840835 -0.80827319
H 1.98000294 -1.37415806 0.61296604
H 2.50132250 -1.11459899 -1.04431949
H 0.22259842 -1.88965985 -1.07530134
H 0.39826826 -0.27662374 -1.80568752
H -1.49455639 -0.89414523 1.79057314
H 0.22039344 -1.24178531 1.62105075
H -0.38195719 0.47919309 1.90465094
H -1.86166095 -2.00495193 0.10511353
H -1.97752347 -1.11314438 -1.52637267
H -3.84445474 -0.20134120 -0.57689547
H -3.39957818 -0.55637319 1.09348493
H -2.30905520 1.57857601 1.27265606
H -3.02953354 1.95071862 -0.32068241
H -1.30602797 0.92665838 -1.53218555
H -0.35849727 1.77588407 -0.17790986
O -2.16907406 3.75992876 1.88313112
S -2.46651194 4.34289267 0.52335079
O -3.26519939 3.28073053 -0.19962464
N -1.04889597 4.75954255 -0.32917890
S 0.30908416 5.06784868 0.65769807
O 0.14056477 4.70297635 2.08470413
O 0.55803882 6.55845401 0.59796683
F 1.70519651 4.32598658 0.08823644
F -3.44839791 5.69183073 0.76461846
39
energy=-47316.16748090 config_type=Default name=Pyr14-FSI
C 3.84648111 0.33504872 0.53337645
C 2.85663431 -0.27779875 -0.42603945
C 1.47315556 -0.05614869 0.18619575
C 0.39591865 -0.63028898 -0.69004232
N -0.91011282 -0.40232836 -0.07853949
C -1.27352967 -1.61387053 0.61246043
C -0.91403367 0.76661653 0.76887855
C -2.41521094 1.07872374 0.85491205
C -2.70860862 1.06852838 -0.64090239
C -1.92984431 -0.15217952 -1.07596294
H 4.40289738 1.18011467 0.04075345
H 3.37175414 0.80407756 1.41861726
H 4.62113648 -0.38989534 0.83040336
H 3.08538662 -1.34723489 -0.57354263
H 2.91508993 0.26197972 -1.38296210
H 1.41762901 1.03283590 0.33523878
H 1.49235975 -0.58799253 1.16548067
H 0.42782007 -0.15347030 -1.67968703
H 0.58975595 -1.70918454 -0.78885891
H -1.88080941 -2.27535318 -0.07162641
H -0.39772736 -2.23536039 0.88741853
H -1.92455728 -1.45221373 1.48992362
H -0.43849938 0.63723430 1.73242052
H -0.53044047 1.60692021 0.14372839
H -2.52952688 2.12866454 1.24231982
H -2.97284631 0.33351394 1.42069598
H -2.22592670 1.99830286 -1.04796607
H -3.76929170 1.04866789 -0.87368789
H -1.42688558 -0.00229005 -2.04892022
H -2.64816785 -0.99561920 -1.17822803
O 0.05319049 -0.80965221 4.45578288
S 0.06711831 -0.41016627 2.99828137
O 0.40493062 -1.61707546 2.16233219
N -1.45870488 0.23499720 2.58399551
S -2.73705348 -0.23064527 3.60001637
O -3.54444147 -1.35648699 3.01167871
O -3.71950710 0.90664277 3.77516573
F -2.26527250 -0.71383716 5.11448171
F 1.23570517 0.78917805 2.83696144
39
energy=-47320.61783029 config_type=Default name=Pyr14-FSI
C 3.63053559 -0.02021997 0.16107240
C 2.82488050 1.13735347 -0.28975785
C 1.36080005 1.05844689 0.01884093
C 0.65851605 -0.10222021 -0.58301727
N -0.73051295 -0.14035033 -0.26533935
C -1.37622120 -1.09204806 -1.18250889
C -0.99796595 -0.67490420 1.06038067
C -2.42017665 -0.29217677 1.33874841
C -2.76140630 0.80048204 0.35014927
C -1.44763438 1.08541072 -0.38575401
H 4.59468523 0.34607533 0.57383930
H 3.17031384 -0.62439439 0.95780078
H 3.94557116 -0.66011510 -0.71438648
H 3.19445886 2.07254873 0.19894437
H 2.99419041 1.30659897 -1.37883854
H 0.92135632 1.97316654 -0.47972923
H 1.18308787 1.12202324 1.10013003
H 0.80227391 -0.10650322 -1.69317499
H 1.07509068 -1.09125729 -0.26123358
H -2.47260167 -1.12443144 -1.03311216
H -0.93219755 -2.09201074 -0.94089722
H -1.07443995 -0.87846189 -2.21407132
H -0.25749817 -0.22930304 1.74768546
H -0.92580705 -1.76448062 1.00568557
H -3.14537979 -1.10726889 1.25374002
H -2.43404952 0.07522714 2.40483383
H -3.10684277 1.66756556 0.94336953
H -3.55368131 0.49133174 -0.35749930
H -1.02871074 1.95653741 0.11565853
H -1.69063450 1.23225825 -1.45155894
O 2.58291665 -2.91876586 2.45613246
S 1.84887581 -3.40363174 3.68584294
O 1.67330839 -2.28525876 4.63769947
N 0.41685084 -4.15491410 3.16962969
S -0.96494839 -3.80681503 4.10906574
O -1.99718865 -4.87563661 3.82919358
O -1.53231218 -2.48227380 3.64478522
F -0.70112032 -3.80591193 5.74439674
F 2.86189103 -4.53636108 4.41075727
39
energy=-47312.17957651 config_type=Default name=Pyr14-FSI
C 4.10081563 0.18584389 0.12287764
C 2.79325019 -0.51106236 -0.09196126
C 1.59801647 0.40175595 0.15791771
C 0.39581767 -0.46851251 -0.10580399
N -0.87003861 0.15124920 0.05886176
C -0.91595952 1.18948787 1.04385416
C -1.81227457 -0.87365763 0.49294654
C -3.05456102 -0.70801418 -0.33108449
C -2.46876848 -0.26434836 -1.64556867
C -1.38452307 0.66397521 -1.19620349
H 4.41161748 0.70561477 -0.80840756
H 4.88110596 -0.61476198 0.27519351
H 4.16032980 0.81436902 1.01289676
H 2.72497913 -0.82050711 -1.15727819
H 2.70742066 -1.34786260 0.62466155
H 1.60768226 1.28490051 -0.51338994
H 1.53763826 0.73968653 1.19542600
H 0.46733007 -1.33168818 0.60911994
H 0.46824002 -0.79989331 -1.17350328
H -0.53551081 0.82244975 2.02588364
H -1.99990969 1.42284432 1.24665523
H -0.42155533 2.13825369 0.71893140
H -1.40537465 -1.89305416 0.29991107
H -2.04206481 -0.81599187 1.57505426
H -3.64173108 0.11865367 0.10536517
H -3.61083422 -1.66696955 -0.38821319
H -2.06354292 -1.14746531 -2.20576589
H -3.21375367 0.22701738 -2.28797819
H -1.82677321 1.67112990 -1.04889799
H -0.58706795 0.72655743 -1.96867102
O -1.94503865 1.16980986 -3.18423624
S -0.84219338 2.11460685 -2.87820150
O -1.21994021 3.55667969 -3.09981688
N 0.57484618 1.84165169 -3.81088021
S 1.89937280 2.50046605 -2.89533342
O 1.53863484 2.66107454 -1.44016774
O 2.25783884 3.83637442 -3.48154328
F 3.23548410 1.49654342 -2.94643394
F -0.48098779 1.95201830 -1.24807021
39
energy=-47321.09604367 config_type=Default name=Pyr14-FSI
C 2.86824128 0.43305278 0.74354190
C 2.33184265 -0.90230070 0.31427742
C 1.69521768 -0.79150830 -1.05345687
C 0.56633042 0.15976433 -1.12128162
N -0.56052705 -0.07419498 -0.30033397
C -0.89440264 -1.42724411 -0.04326392
C -0.55956946 0.70041647 0.94847869
C -2.04166060 0.80021593 1.32865577
C -2.80381741 0.64452803 0.05276614
C -1.70830406 0.56751200 -0.96296301
H 2.27491383 0.97069344 1.48043390
H 2.98991154 1.05414433 -0.17911777
H 3.87757899 0.28090821 1.22587081
H 3.21973386 -1.58356689 0.16127532
H 1.68591683 -1.37379940 1.06929823
H 1.47848627 -1.81323365 -1.37586558
H 2.52163654 -0.44535790 -1.73558307
H 0.94740259 1.18975224 -0.85220311
H 0.24823465 0.27496453 -2.18434351
H -0.46830059 -2.07816575 -0.83266736
H -0.66662894 -1.79710536 0.98675651
H -1.99268915 -1.55057668 -0.13313854
H -0.19480771 1.71943652 0.70244826
H 0.01770514 0.20668958 1.74520250
H -2.27902453 0.02038069 2.07843834
H -2.23269691 1.82006520 1.73227884
H -3.44490447 1.55102861 -0.15749232
H -3.51080462 -0.20132859 0.03571015
H -1.37738829 1.61393164 -1.17570501
H -1.98762584 0.03089780 -1.88651098
O -0.93083037 -2.38099633 2.77738295
S -0.30312766 -3.75144781 2.65841742
O -1.29541844 -4.62903483 1.96617801
N 1.15509202 -3.66761590 1.74420524
S 2.55488452 -3.95107710 2.69615769
O 3.74774072 -3.45332154 1.91055020
O 2.78895596 -5.39187803 2.98856584
F 2.51529288 -3.15021698 4.15049989
F -0.04915860 -4.37995072 4.18759524
39
energy=-47320.98010018 config_type=Default name=Pyr14-FSI
C 3.43506044 -0.10135414 -0.47605648
C 2.79194442 0.56219152 0.70132837
C 1.41130058 -0.04050775 0.99587568
C 0.57675875 0.17589785 -0.23913998
N -0.76212407 -0.34473038 -0.10899154
C -0.72060283 -1.77787122 0.12498408
C -1.46071881 -0.00156665 -1.33520040
C -2.39867951 1.12347075 -0.94653754
C -2.87845053 0.59302232 0.39876780
C -1.50814456 0.23072729 0.98799383
H 3.02178566 -1.11705685 -0.68098726
H 4.53129581 -0.17913751 -0.30517858
H 3.29923906 0.55118694 -1.36259550
H 3.40295684 0.42572157 1.61535173
H 2.72004369 1.64409575 0.52325948
H 0.92854563 0.51787891 1.82020468
H 1.53718114 -1.10749029 1.23987829
H 1.04540013 -0.32851567 -1.08381060
H 0.51585579 1.24516247 -0.45750796
H 0.21217066 -2.25363359 -0.25852255
H -1.63573101 -2.20540832 -0.34274394
H -0.78521850 -2.01720553 1.20611501
H -2.03990215 -0.91206694 -1.65366731
H -0.76683703 0.30696574 -2.14437585
H -3.23585849 1.23009892 -1.66261892
H -1.79949452 2.03336536 -0.83525488
H -3.39893949 1.32254444 1.01173369
H -3.41896989 -0.33997744 0.19956429
H -1.58342381 -0.44534504 1.85321759
H -1.03644341 1.20953750 1.21491476
O 0.54330082 -3.89495434 5.05737942
S 1.03158816 -4.00593471 3.63366331
O 1.57686409 -5.38504069 3.37824198
N -0.26229088 -3.76140038 2.51808255
S -1.73056231 -4.05814093 3.39961271
O -1.63570031 -5.39041753 4.11165018
O -2.91611684 -4.13003877 2.50347808
F -1.85712920 -2.83390275 4.53113609
F 2.26008034 -2.87566348 3.41614792
39
energy=-47319.86419864 config_type=Default name=Pyr14-FSI
C 3.43293576 0.16582221 0.52985399
C 2.62339354 -1.03203388 0.11825093
C 1.32136030 -0.65865652 -0.56219220
C 0.49916593 0.14577121 0.36469391
N -0.77034375 0.58339434 -0.12320441
C -0.74764594 1.94853775 -0.62583504
C -1.69674339 0.54908862 0.99777005
C -2.71269072 -0.51689669 0.71165089
C -1.97516025 -1.35342104 -0.31999802
C -1.37364970 -0.23309926 -1.12605440
H 2.91530198 0.67543751 1.34722153
H 3.56844514 0.79807014 -0.38945762
H 4.42430450 -0.25369742 0.86416547
H 3.26348024 -1.66669676 -0.54687736
H 2.38949028 -1.68087757 0.99387157
H 1.63556380 -0.05638487 -1.46312266
H 0.87142727 -1.59692254 -0.90682263
H 0.43423030 -0.35782233 1.35207686
H 1.07882092 1.09550807 0.56421101
H -1.83304701 2.25606020 -0.62790101
H -0.35326072 2.03007229 -1.65695792
H -0.24886887 2.62405507 0.08408199
H -2.16011759 1.53015332 1.20473995
H -1.19567357 0.25773620 1.96144379
H -3.03209992 -1.10767573 1.58273477
H -3.54077891 -0.03427282 0.15838839
H -2.64588385 -1.99968117 -0.90590283
H -1.20270069 -1.91796429 0.25695999
H -0.74596847 -0.53751816 -1.94207671
H -2.22328661 0.34391412 -1.54881347
O 1.20546574 1.76143026 -3.28802246
S 2.35585095 2.20320305 -2.41007718
O 2.22550685 1.48049787 -1.11984249
N 3.81086454 1.91730592 -3.24564132
S 5.07433547 1.27275534 -2.30908263
O 5.12208529 -0.23366974 -2.39705342
O 6.39173529 1.76915479 -2.86453699
F 4.98153250 1.69267691 -0.69153902
F 2.14553857 3.86145791 -2.19305355
39
energy=-47309.76859034 config_type=Default name=Pyr14-FSI
C 2.99656504 0.33943965 -0.39769306
C 2.34276752 -0.68645884 0.50493396
C 1.41024277 -1.59219321 -0.23804996
C 0.27749264 -0.95409651 -0.92648708
N -0.65396092 -0.21205526 -0.15909538
C -1.04238749 -0.79696537 1.09568747
C -0.33610558 1.20486660 -0.02232955
C -1.63546953 1.95407514 -0.05290536
C -2.66894146 0.87839610 -0.22867249
C -1.86149551 -0.14615289 -0.97401742
H 4.09504167 0.40978335 -0.17347185
H 2.54562745 1.35004780 -0.31172297
H 2.92561013 0.01693783 -1.46433532
H 3.14517221 -1.33747215 0.93050935
H 1.91267006 -0.14132029 1.35284647
H 2.04933094 -2.01711490 -1.07339738
H 1.18723437 -2.50149869 0.35772265
H 0.69929117 -0.26729651 -1.69598656
H -0.25580947 -1.75060829 -1.48736916
H -0.31440723 -1.48521252 1.53560971
H -1.23789375 0.00561790 1.86701542
H -2.00096242 -1.35738431 1.04246911
H 0.21425556 1.50943822 -0.94527896
H 0.15761033 1.43655376 0.91591968
H -1.73284210 2.64737581 -0.91896446
H -1.80900414 2.56584186 0.85127434
H -3.54781845 1.19727810 -0.80988919
H -2.98312077 0.53260020 0.77582834
H -2.32535701 -1.12962417 -1.08363827
H -1.55333604 0.32720159 -1.92515678
O 5.52442476 1.92042268 2.74313581
S 5.49413961 1.73584584 1.26065181
O 6.70776718 1.01077534 0.74382040
N 4.03746537 0.88803375 0.84968855
S 2.74023270 1.80362988 1.49494739
O 1.59117457 0.86968240 1.72939704
O 3.07003744 2.46447074 2.78920029
F 2.19605774 2.99949051 0.46824952
F 5.34425474 3.25396934 0.54897243
39
energy=-47291.86930740 config_type=Default name=Pyr14-FSI
C 4.01665263 -0.72890595 -0.00529479
C 2.72579337 -0.34113626 0.68204551
C 1.57425290 -0.21088510 -0.32278279
C 0.37029844 0.17101731 0.47011391
N -0.82932531 0.34655056 -0.27779422
C -0.64769285 0.99522053 -1.56183667
C -1.51335146 -0.89401768 -0.46098930
C -2.64604632 -0.94286984 0.54201512
C -2.99650589 0.49838803 0.69395016
C -1.70180416 1.21456001 0.50859348
H 4.70692748 -1.08342255 0.79559984
H 3.86902074 -1.51434312 -0.76412536
H 4.49932950 0.17800434 -0.44806693
H 2.90841895 0.65460226 1.14159833
H 2.44157677 -1.03988028 1.47513628
H 1.41559367 -1.20283761 -0.77525367
H 1.82569318 0.47237539 -1.13640566
H 0.18361252 -0.64121636 1.20168494
H 0.54990945 1.08358657 1.08610707
H -0.45732630 0.22512091 -2.33637806
H -1.62423370 1.48530317 -1.80518344
H 0.11596934 1.78821223 -1.53478363
H -1.87752989 -1.01335538 -1.51976905
H -0.88439755 -1.77359634 -0.25206969
H -3.51598089 -1.47175656 0.07984448
H -2.30307737 -1.42557457 1.46769706
H -3.65297725 0.76524526 -0.16821871
H -3.45138631 0.73705469 1.67404987
H -1.82837907 2.22401530 0.03203179
H -1.27303462 1.44454103 1.51848411
O 5.42872262 1.04646418 -0.68135492
S 5.04048575 1.07058485 -2.13581018
O 4.93440749 -0.37152035 -2.56815405
N 3.57668468 1.93641228 -2.40667270
S 2.27630661 1.29632972 -1.52340468
O 2.25187457 -0.20138623 -1.72448084
O 2.36484396 1.58813507 -0.04063082
F 0.84688788 1.97016559 -2.12165567
F 6.27856201 1.80573787 -2.97781103
39
energy=-47295.30291377 config_type=Default name=Pyr14-FSI
C 4.07451208 -0.47798797 0.49350838
C 2.92771785 0.05498915 -0.31216749
C 1.58647863 -0.23707757 0.31961319
C 0.48211557 0.31187635 -0.51759737
N -0.84564209 0.07754344 0.01355173
C -0.85394225 0.35291457 1.43372377
C -1.74631184 0.96350537 -0.70133469
C -3.11094439 0.39354637 -0.37678308
C -2.84890809 -1.09484874 -0.47035713
C -1.35545841 -1.22193419 -0.33020062
H 4.73326275 -1.04850018 -0.19469252
H 4.70291595 0.34620617 0.92229923
H 3.77756459 -1.20880050 1.28099985
H 3.03005491 1.16205988 -0.37441339
H 2.90563833 -0.37727367 -1.33169230
H 1.41452878 -1.33359097 0.41176066
H 1.57122333 0.18665304 1.33930451
H 0.52216313 -0.19262893 -1.51464258
H 0.61444725 1.39627914 -0.62989832
H -0.42156916 -0.49710856 1.99216269
H -1.82018539 0.68505547 1.82687080
H -0.16441849 1.22910722 1.58998587
H -1.62711108 2.01955649 -0.38793676
H -1.61175040 0.80111134 -1.78432687
H -3.46881511 0.71436407 0.62577312
H -3.85820912 0.68115349 -1.17241997
H -3.40855170 -1.61993427 0.32611537
H -3.21471903 -1.46244771 -1.44494062
H -0.96172782 -1.45864842 -1.35959023
H -1.02435878 -2.04332562 0.32732477
O 1.26769257 4.40802571 -0.29444929
S 1.80817394 3.00341949 -0.23791620
O 1.97535696 2.59055929 1.20843534
N 3.31431031 2.93616192 -1.05952396
S 4.59200907 2.36292308 -0.06970351
O 4.61633039 2.99581975 1.28166589
O 5.88076672 2.74252291 -0.76380345
F 4.58348413 0.71531540 0.13270145
F 0.71625420 2.01037043 -1.00513232
39
energy=-47321.17631096 config_type=Default name=Pyr14-FSI
C 3.64417476 0.35734513 -0.69755635
C 2.19362023 0.51757265 -0.22590980
C 1.63793442 -0.74562868 0.31505704
C 0.24516844 -0.72832123 0.81904309
N -0.79200092 -0.39227516 -0.13872758
C -0.50328207 -1.13204116 -1.35638178
C -2.08620303 -0.74998941 0.39402236
C -3.02391763 0.31037790 -0.11933002
C -2.17951680 1.55947767 0.06633352
C -0.81370531 1.01239938 -0.32895746
H 4.20883994 -0.36790255 -0.10118279
H 4.11321658 1.36137098 -0.73191275
H 3.63583396 -0.00442048 -1.75984599
H 2.27238438 1.28742456 0.59588747
H 1.68691120 0.93700585 -1.11257846
H 1.85025925 -1.57697192 -0.39657300
H 2.28215666 -1.01397729 1.21105044
H -0.04761789 -1.72629266 1.26582818
H 0.10281649 -0.00929353 1.66068420
H 0.06696579 -0.52258486 -2.05450256
H 0.01194244 -2.07294572 -1.08743486
H -1.43179552 -1.42983845 -1.88736922
H -2.38392855 -1.78521037 0.11178016
H -2.04802695 -0.62828187 1.50162508
H -3.94154020 0.35070670 0.50312024
H -3.26453913 0.16068891 -1.20734504
H -2.23504758 1.84773311 1.13485486
H -2.48879004 2.40688933 -0.54267454
H -0.10905483 1.48574804 0.38047503
H -0.60325810 1.29123515 -1.40159417
O -4.79226300 0.12860615 -5.44886219
S -3.58031234 0.46737959 -4.66316796
O -3.29713457 -0.54896373 -3.56834715
N -2.14099507 0.44204021 -5.64199664
S -0.81087042 0.79447807 -4.60781472
O 0.23808409 -0.23963849 -4.80812049
O -0.34589936 2.18321827 -4.90375888
F -1.27532438 0.73969177 -2.98581121
F -3.66853059 1.98414242 -3.96030126
39
energy=-47316.63309056 config_type=Default name=Pyr14-FSI
C 3.83293714 -0.81161255 0.00015330
C 2.84824915 0.19603123 -0.54756810
C 1.49387580 -0.13175343 0.07383399
C 0.42701006 0.81932470 -0.40687218
N -0.82144530 0.44002175 0.22802659
C -0.83008218 0.93078647 1.57625283
C -1.95051633 1.04505642 -0.45168413
C -3.02430339 -0.00079211 -0.56861770
C -2.51750893 -1.20630977 0.18296891
C -1.01250446 -0.99362643 0.12333499
H 3.35031565 -1.60425786 0.61097723
H 4.31175817 -1.35485024 -0.85472682
H 4.60810177 -0.35240620 0.62844757
H 3.14879292 1.20055007 -0.13989398
H 2.77706376 0.20869216 -1.63473951
H 1.23640794 -1.17074289 -0.20338936
H 1.66496924 -0.09698803 1.16912328
H 0.33460346 0.65918976 -1.49698503
H 0.67630583 1.86787688 -0.23914250
H -1.23452378 1.98074904 1.55358010
H 0.18823245 1.03658879 1.99729393
H -1.48213728 0.33184549 2.24863111
H -1.64970685 1.31932738 -1.49906285
H -2.34166275 1.94331472 0.03188288
H -3.95661577 0.31286944 -0.06910290
H -3.23141078 -0.30561683 -1.60387859
H -2.77360194 -2.16964904 -0.29912596
H -2.81815588 -1.22305133 1.24881246
H -0.57387837 -1.56688053 0.95953190
H -0.68056937 -1.30368706 -0.88001278
O -5.75850553 1.41533360 2.44468535
S -4.80935881 2.34606458 3.17391423
O -4.86788356 1.98446107 4.61569520
N -3.27413202 2.15558628 2.46546988
S -2.00837113 2.24828116 3.61777731
O -2.29740440 1.35910399 4.77883667
O -1.82579903 3.66436010 4.11524120
F -0.56259281 1.81031767 2.91998156
F -5.41965506 3.90236623 3.01465221
