24
energy=-20627.56612415 config_type=Default name=EMIM-BF4
C 2.73283880 0.27642295 -0.63361627
C 1.80736552 0.64155590 0.51494351
N 0.47218950 0.09045594 0.34857319
C 0.10630237 -1.11905805 0.81262194
C -1.22253255 -1.28911824 0.46484773
N -1.65106918 -0.19008476 -0.20287104
C -2.96177152 0.05899751 -0.74659626
C -0.59751074 0.64572467 -0.26464713
H 2.19486896 -0.05050677 -1.52899064
H 3.33003974 1.18525841 -0.92663043
H 3.50427108 -0.44553229 -0.28985224
H 1.70921012 1.75156227 0.53502656
H 2.23494359 0.37428319 1.50185872
H 0.73979920 -1.79953162 1.34507989
H -1.82792800 -2.17322524 0.69477916
H -3.55415645 -0.86626677 -0.81111897
H -3.47002761 0.76663835 -0.03936975
H -2.91815745 0.52774715 -1.74866913
H -0.62867540 1.61467743 -0.74124983
B -1.14752200 -3.00422904 1.76750136
F -1.47095620 -3.35618957 3.13871399
F -1.73060548 -1.71066999 1.49414232
F 0.29181778 -2.87045017 1.64014555
F -1.66393073 -4.01313986 0.87653434
24
energy=-20642.35559019 config_type=Default name=EMIM-BF4
C -2.66206524 0.40782269 0.36586434
C -1.88118037 -0.18880655 -0.79812183
N -0.50663377 -0.33058523 -0.34987702
C -0.00747800 -1.44278706 0.26516665
C 1.33551715 -1.15791766 0.52260465
N 1.62384984 0.08607567 0.07353777
C 2.91953162 0.74950402 0.15621348
C 0.48544165 0.57413472 -0.45573888
H -3.26060313 1.29443690 0.03796620
H -1.99472447 0.77011891 1.17430179
H -3.38134978 -0.35765776 0.73613417
H -2.32170126 -1.10681172 -1.19662800
H -1.86835520 0.56356559 -1.63584841
H -0.55334733 -2.35470247 0.49998260
H 2.00954696 -1.85551636 1.01021720
H 2.92621209 1.35840225 1.08280346
H 3.03065053 1.43142410 -0.69725590
H 3.74643821 -0.00651191 0.12256240
H 0.36025050 1.56581186 -0.91388467
B -2.18670481 0.65999410 -4.53848281
F -2.54066899 -0.30637699 -5.54530439
F -2.86768997 1.92301305 -4.75741956
F -0.74788910 0.88714183 -4.47485007
F -2.58662805 0.14231371 -3.23293233
24
energy=-20642.49999975 config_type=Default name=EMIM-BF4
C -2.57383289 0.83699731 -0.18749753
C -1.98633923 -0.49113199 0.30943747
N -0.55806298 -0.42869812 0.05582295
C 0.00743358 -0.84272533 -1.07621035
C 1.37880098 -0.62787120 -0.95563448
N 1.58820670 -0.07839398 0.27755091
C 2.88746621 0.31673359 0.84215330
C 0.39107459 0.04765208 0.90961660
H -2.36480822 1.61412780 0.58015590
H -3.64641917 0.74368002 -0.43966409
H -1.98193769 1.13789853 -1.08002850
H -2.21328666 -0.64015278 1.38180930
H -2.45697695 -1.26110809 -0.32101677
H -0.49281497 -1.26451417 -1.92767044
H 2.13443373 -0.85458494 -1.70049810
H 3.57653624 0.50002624 -0.01861653
H 2.78867863 1.31346746 1.35136612
H 3.28364628 -0.47375686 1.48323735
H 0.23820183 0.45235442 1.90395539
B 0.01519862 2.90648851 -2.65392858
F -0.35780812 2.00736615 -3.73226634
F -0.54259270 4.21192023 -2.95865098
F 1.46120214 3.05053769 -2.60186066
F -0.51607351 2.37695692 -1.40780953
24
energy=-20641.98551128 config_type=Default name=EMIM-BF4
C 2.61638545 -0.93668879 -0.35665165
C 1.95647061 0.33374547 0.08972827
N 0.54303459 0.36096303 -0.18624874
C 0.01592251 0.83704761 -1.33948184
C -1.34633056 0.68705976 -1.20823290
N -1.64449305 0.13549555 -0.01016247
C -2.95393682 -0.18433210 0.51198081
C -0.45027513 -0.06107812 0.61429346
H 3.17687777 -0.77179285 -1.31961149
H 1.92123057 -1.77103581 -0.54525211
H 3.36940638 -1.24557734 0.38929592
H 2.45141073 1.18057089 -0.45637063
H 2.14513195 0.55140167 1.16281841
H 0.57357400 1.25007800 -2.18586874
H -2.03816346 0.98642255 -1.98811691
H -3.10910425 -1.29506877 0.57577130
H -3.19324216 0.28888473 1.47118799
H -3.70741078 0.14326647 -0.23420359
H -0.32648834 -0.48936194 1.59852694
B 5.28016939 0.38475093 1.17632219
F 5.01749864 0.41316715 2.60489916
F 4.67055031 -0.80887692 0.63616586
F 6.71721023 0.28339292 0.99939781
F 4.77470477 1.59968030 0.56256829
24
energy=-20643.35058192 config_type=Default name=EMIM-BF4
C -2.73219820 0.55423240 0.13421274
C -1.87183196 -0.20891162 -0.84401446
N -0.50019650 -0.32005872 -0.38708076
C -0.00225636 -1.32729103 0.38090460
C 1.33099497 -1.10979314 0.62233712
N 1.63624693 0.03601099 -0.00489571
C 2.94500027 0.65427068 -0.01994059
C 0.52347511 0.51303968 -0.61650179
H -3.66698033 0.86310335 -0.38035412
H -3.03354997 -0.12667514 0.95665067
H -2.26035805 1.48067368 0.48576223
H -2.25482382 -1.24626386 -0.93768867
H -1.87377258 0.28200874 -1.84057295
H -0.59152812 -2.18276434 0.74706526
H 1.94892958 -1.77385996 1.21052822
H 3.70226701 -0.04839937 0.35781585
H 2.95008314 1.63097078 0.52943473
H 3.25210729 0.89874103 -1.06397539
H 0.49839159 1.43096584 -1.19520946
B -2.09084048 -3.43411153 -0.65029051
F -2.42148155 -2.71662784 0.56185305
F -3.19018511 -4.30065752 -0.99757030
F -0.89797465 -4.22856006 -0.40647174
F -1.81116654 -2.51448098 -1.73205290
24
energy=-20643.42799821 config_type=Default name=EMIM-BF4
C 2.59099853 0.83187990 0.38529430
C 1.92709708 -0.24347671 -0.46055877
N 0.55286523 -0.37498858 -0.04767053
C 0.10425559 -1.20681959 0.91198123
C -1.27296272 -1.00864312 0.98046490
N -1.60258538 -0.06179611 0.05635676
C -2.96744305 0.40699382 -0.16042219
C -0.47627698 0.32200938 -0.57047694
H 3.66437254 0.93366665 0.14624103
H 2.42732647 0.53890401 1.44048185
H 2.11291589 1.81197814 0.13281694
H 2.50423313 -1.19372555 -0.28749761
H 2.00344837 -0.03819181 -1.54646760
H 0.64808791 -1.90432066 1.53258960
H -1.91954789 -1.53313731 1.65822904
H -2.91392381 1.27725610 -0.85662256
H -3.36285430 0.79483050 0.82227916
H -3.57580503 -0.41963384 -0.53400989
H -0.44420159 1.06721480 -1.35617970
B -1.22577949 0.19322004 -3.49786688
F -1.89451699 1.45222112 -3.21825561
F -0.63172067 -0.35016826 -2.29332950
F -2.21781331 -0.75498417 -3.98775456
F -0.15958071 0.35599567 -4.47438873
24
energy=-20642.36141795 config_type=Default name=EMIM-BF4
C -2.66504586 0.72332105 -0.17821620
C -1.89544538 -0.57564431 -0.33678894
N -0.52598594 -0.43496815 0.09757545
C -0.02457473 -0.64208679 1.33074403
C 1.34588919 -0.38395684 1.27796511
N 1.61433802 -0.02840863 0.00091054
C 2.93035797 0.33214911 -0.51776110
C 0.47508028 -0.06129790 -0.70982846
H -3.75414270 0.48077969 -0.27859835
H -2.43155766 1.42360421 -1.01874764
H -2.46543470 1.22768008 0.76499266
H -1.95501992 -0.89562405 -1.40039358
H -2.39914756 -1.31414835 0.34202762
H -0.59144531 -0.95499308 2.20867150
H 2.05418683 -0.45893318 2.11620794
H 3.73928422 -0.13356230 0.08209454
H 3.07702342 1.42987363 -0.42018950
H 3.03957655 0.07930867 -1.58794243
H 0.43206327 0.18690714 -1.77272319
B -0.87971577 2.91694706 3.38642180
F -1.28048786 2.06698226 2.27402873
F -1.49060945 4.21460543 3.22336532
F 0.56582118 3.08899712 3.39055808
F -1.26586010 2.27313410 4.62331720
24
energy=-20596.44105620 config_type=Default name=EMIM-BF4
C -2.69435479 -0.05216972 0.56932662
C -1.82310301 -0.84554908 -0.38469518
N -0.50468632 -0.27222276 -0.39419578
C -0.10704076 0.70503820 -1.23324667
C 1.22482785 1.00036451 -0.94783438
N 1.59848018 0.18909363 0.06176220
C 2.92378021 0.16528083 0.67596395
C 0.54541061 -0.57923314 0.39207965
H -2.05610306 0.16867391 1.45961265
H -3.60301442 -0.60118404 0.88676641
H -2.96717209 0.88563455 0.00809411
H -1.72996264 -1.88569222 0.00181536
H -2.28414511 -0.86672709 -1.41277839
H -0.72618495 1.16618513 -1.98790190
H 1.84908891 1.73496029 -1.43380073
H 3.27218386 -0.88334153 0.88023897
H 3.66454935 0.64569398 0.01370210
H 2.86600263 0.65247545 1.67265099
H 0.55144355 -1.32728089 1.17244003
B -4.05015219 -1.06871007 -0.96782884
F -4.39582961 -2.09181617 -1.94703058
F -4.73467271 0.16627749 -1.33138645
F -2.61759970 -0.82795797 -0.92609225
F -4.51735293 -1.44862047 0.35553245
24
energy=-20635.54698084 config_type=Default name=EMIM-BF4
C -2.65383086 0.42285126 0.46741672
C -1.89342902 0.29870694 -0.81222718
N -0.52016926 -0.07525477 -0.52955989
C -0.11716330 -1.37360841 -0.45112368
C 1.23950770 -1.35250067 -0.17030009
N 1.61188785 -0.06580256 -0.08832468
C 2.94124069 0.40406551 0.18854176
C 0.53412604 0.73817162 -0.30828241
H -3.58635190 1.01582583 0.33911453
H -2.91391514 -0.61628077 0.78243400
H -2.04920694 0.93258413 1.23894292
H -1.90040188 1.23651704 -1.41718644
H -2.37789126 -0.49599405 -1.43973524
H -0.73238675 -2.26083581 -0.58181817
H 1.91842633 -2.18213278 -0.03297537
H 3.61329364 0.01165668 -0.60332162
H 3.37083051 0.03851018 1.13939419
H 2.99191801 1.50275632 0.21423814
H 0.52351553 1.82076432 -0.30633344
B 4.10176786 1.88614670 1.56321272
F 5.25477166 1.31865817 0.85931004
F 4.44458619 3.12948637 2.23096219
F 3.03421314 2.17780744 0.60754214
F 3.55663566 0.90252381 2.49682576
24
energy=-20642.60333722 config_type=Default name=EMIM-BF4
C -2.68951907 0.39171732 -0.08012674
C -1.80548984 -0.66193609 -0.68228124
N -0.48761011 -0.52665061 -0.08784284
C 0.02728568 -1.09587074 1.00825446
C 1.31638240 -0.65756279 1.16494207
N 1.59375668 0.18948223 0.15342201
C 2.83427787 0.91253214 -0.11409393
C 0.48034623 0.25646878 -0.60061301
H -2.08769167 1.32339442 0.03992965
H -3.06180735 0.00085931 0.89788401
H -3.54319641 0.61038382 -0.78184113
H -2.20419541 -1.68476498 -0.56554430
H -1.73696827 -0.48053097 -1.78209422
H -0.50134633 -1.78097670 1.64572063
H 1.98366383 -0.93778797 1.95024744
H 3.20340323 0.69808215 -1.14722284
H 2.64209147 1.99991256 -0.09662766
H 3.62711810 0.57572004 0.56899412
H 0.40949894 0.86752807 -1.49110646
B -2.53776985 -3.96659839 1.52422973
F -2.73021407 -4.96671597 0.50652689
F -3.16921111 -2.72659554 1.09949894
F -1.10852170 -3.70485535 1.62779587
F -3.05743345 -4.39889965 2.80007060
24
energy=-20642.62106762 config_type=Default name=EMIM-BF4
C 2.66767942 -0.41420952 0.50255194
C 1.93889091 0.54358302 -0.42549096
N 0.54299132 0.21086690 -0.37934155
C -0.05402330 -0.68350248 -1.20814760
C -1.39465314 -0.76898925 -0.89974320
N -1.60654966 0.07978743 0.12190791
C -2.89662616 0.28494833 0.74297809
C -0.41994800 0.67014806 0.42966254
H 2.24518562 -0.28923026 1.51791575
H 2.44734780 -1.45714249 0.14651290
H 3.76743491 -0.20783853 0.46557015
H 2.04201902 1.58710226 -0.01164539
H 2.37816802 0.52192093 -1.44558728
H 0.44715601 -1.24352007 -1.99131856
H -2.11157177 -1.40761269 -1.40383838
H -3.56683987 0.70228122 -0.05839821
H -2.84603563 1.10174639 1.49695406
H -3.28588396 -0.63845978 1.17501810
H -0.29474153 1.40812051 1.22443967
B 2.82327293 -2.81983746 -2.57283986
F 2.63643666 -3.90177487 -3.50376237
F 2.19884450 -1.60110955 -3.04509000
F 4.24316749 -2.57903803 -2.43140290
F 2.22363362 -3.19446363 -1.31076648
24
energy=-20642.95561122 config_type=Default name=EMIM-BF4
C -2.52950074 0.85286387 -0.31317632
C -1.87217184 -0.46356464 -0.74813705
N -0.54421049 -0.43134097 -0.12201252
C -0.25858846 -0.91483761 1.10098286
C 1.08692174 -0.69053814 1.31021094
N 1.57592524 -0.07673905 0.20505529
C 2.94922730 0.34247858 -0.00375044
C 0.57015052 0.08144620 -0.67442312
H -2.03736354 1.63780114 -0.92543860
H -2.26326920 1.06899837 0.75612186
H -3.61670975 0.82229772 -0.37440966
H -2.46376305 -1.32936064 -0.40654553
H -1.75556098 -0.48071480 -1.85127954
H -0.98908696 -1.37797234 1.74490277
H 1.61761010 -0.97033628 2.20997018
H 3.13827769 0.31819563 -1.09468482
H 3.05931324 1.40426655 0.32795565
H 3.65385975 -0.33414394 0.49614301
H 0.67893944 0.54120036 -1.63748493
B -1.86379030 1.95427124 3.21634978
F -1.99797257 0.87712109 2.25977953
F -2.55127995 3.15858045 2.79265238
F -0.45923053 2.26224480 3.33616906
F -2.34692795 1.52597012 4.50675781
24
energy=-20599.53262186 config_type=Default name=EMIM-BF4
C -2.45290495 -0.60234047 -1.14631907
C -2.03325768 -0.25502409 0.26990448
N -0.61523297 0.12109629 0.21593248
C -0.20132124 1.39387754 0.01019209
C 1.18282479 1.32405523 0.02888062
N 1.58348091 0.05942210 0.23757466
C 2.96676862 -0.35363024 0.31232474
C 0.45931362 -0.66942972 0.35072456
H -1.55497947 -0.96293987 -1.69950233
H -3.29588506 -1.31108762 -1.18581039
H -2.73270821 0.36639490 -1.65501632
H -2.12307842 -1.13831387 0.92535012
H -2.63680990 0.59545002 0.59297587
H -0.81660408 2.27499821 -0.13698959
H 1.86637572 2.17868441 -0.10712839
H 3.40605675 0.25258382 1.14790242
H 3.48227376 -0.09394062 -0.62899052
H 3.07142540 -1.43037709 0.49399355
H 0.44426241 -1.74947894 0.52707504
B -3.48273840 0.36364442 -0.66097628
F -3.77223478 -0.56318593 -1.72387151
F -4.16311466 1.61162138 -0.96501464
F -2.04973760 0.61680599 -0.60698544
F -3.93723096 -0.13445577 0.62543201
24
energy=-20637.87656501 config_type=Default name=EMIM-BF4
C -2.55212482 0.80611715 0.23370701
C -1.88366595 -0.08154868 -0.81415137
N -0.57275221 -0.39081967 -0.27916349
C -0.17177468 -1.40424792 0.49854772
C 1.19091435 -1.24017021 0.73018945
N 1.59669282 -0.12434838 0.08609619
C 2.93860285 0.40629315 0.06754418
C 0.50462511 0.39164171 -0.53225948
H -3.53678457 1.12091986 -0.14925417
H -1.94924793 1.74023917 0.37975706
H -2.58051714 0.23267122 1.17099360
H -1.80648726 0.50123784 -1.74768723
H -2.52996566 -0.97711512 -0.87151926
H -0.80774440 -2.18820450 0.86318582
H 1.84562647 -1.87947033 1.32141920
H 3.72938426 -0.33082567 -0.05229484
H 2.99769627 1.12871534 -0.77933711
H 3.04921879 0.99900442 0.99838962
H 0.53830371 1.28991063 -1.12416290
B -2.74364636 -1.79194712 -1.94116041
F -3.46147739 -0.58345698 -1.59752848
F -2.02799877 -2.29232949 -0.77821505
F -3.68072622 -2.78560411 -2.39592499
F -1.74371518 -1.52130682 -2.96466875
24
energy=-20642.70012251 config_type=Default name=EMIM-BF4
C 2.77168450 0.06364188 -0.44058805
C 1.87763522 0.07101011 0.77899786
N 0.48067686 -0.12491452 0.43462761
C -0.12480245 -1.32355232 0.35465603
C -1.44767283 -1.15771025 0.00671313
N -1.62588152 0.18399669 -0.12223849
C -2.91353346 0.78280603 -0.48814640
C -0.46279775 0.78538480 0.13719889
H 3.78251375 -0.37469050 -0.19340749
H 2.98491511 1.09044613 -0.80554905
H 2.39750119 -0.58015551 -1.26294595
H 2.02243560 1.03980570 1.31494598
H 2.20918063 -0.79687785 1.40143459
H 0.32996507 -2.29610112 0.53120324
H -2.17028415 -1.95008909 -0.12840881
H -3.53302012 0.03317361 -1.02179944
H -3.48810786 0.98502687 0.46138281
H -2.77185126 1.72253456 -1.06607608
H -0.31855654 1.84626479 0.10799963
B -2.28209526 1.52836785 3.51432448
F -2.47621815 2.82686724 4.10594291
F -2.14364250 0.47799861 4.49081649
F -1.06492470 1.54665291 2.71674619
F -3.42763583 1.22743111 2.67257590
