24
energy=-20627.56612415 config_type=Default name=EMIM-BF4
C 2.73283880 0.27642295 -0.63361627
C 1.80736552 0.64155590 0.51494351
N 0.47218950 0.09045594 0.34857319
C 0.10630237 -1.11905805 0.81262194
C -1.22253255 -1.28911824 0.46484773
N -1.65106918 -0.19008476 -0.20287104
C -2.96177152 0.05899751 -0.74659626
C -0.59751074 0.64572467 -0.26464713
H 2.19486896 -0.05050677 -1.52899064
H 3.33003974 1.18525841 -0.92663043
H 3.50427108 -0.44553229 -0.28985224
H 1.70921012 1.75156227 0.53502656
H 2.23494359 0.37428319 1.50185872
H 0.73979920 -1.79953162 1.34507989
H -1.82792800 -2.17322524 0.69477916
H -3.55415645 -0.86626677 -0.81111897
H -3.47002761 0.76663835 -0.03936975
H -2.91815745 0.52774715 -1.74866913
H -0.62867540 1.61467743 -0.74124983
B -1.14752200 -3.00422904 1.76750136
F -1.47095620 -3.35618957 3.13871399
F -1.73060548 -1.71066999 1.49414232
F 0.29181778 -2.87045017 1.64014555
F -1.66393073 -4.01313986 0.87653434
24
energy=-20642.35559019 config_type=Default name=EMIM-BF4
C -2.66206524 0.40782269 0.36586434
C -1.88118037 -0.18880655 -0.79812183
N -0.50663377 -0.33058523 -0.34987702
C -0.00747800 -1.44278706 0.26516665
C 1.33551715 -1.15791766 0.52260465
N 1.62384984 0.08607567 0.07353777
C 2.91953162 0.74950402 0.15621348
C 0.48544165 0.57413472 -0.45573888
H -3.26060313 1.29443690 0.03796620
H -1.99472447 0.77011891 1.17430179
H -3.38134978 -0.35765776 0.73613417
H -2.32170126 -1.10681172 -1.19662800
H -1.86835520 0.56356559 -1.63584841
H -0.55334733 -2.35470247 0.49998260
H 2.00954696 -1.85551636 1.01021720
H 2.92621209 1.35840225 1.08280346
H 3.03065053 1.43142410 -0.69725590
H 3.74643821 -0.00651191 0.12256240
H 0.36025050 1.56581186 -0.91388467
B -2.18670481 0.65999410 -4.53848281
F -2.54066899 -0.30637699 -5.54530439
F -2.86768997 1.92301305 -4.75741956
F -0.74788910 0.88714183 -4.47485007
F -2.58662805 0.14231371 -3.23293233
24
energy=-20642.49999975 config_type=Default name=EMIM-BF4
C -2.57383289 0.83699731 -0.18749753
C -1.98633923 -0.49113199 0.30943747
N -0.55806298 -0.42869812 0.05582295
C 0.00743358 -0.84272533 -1.07621035
C 1.37880098 -0.62787120 -0.95563448
N 1.58820670 -0.07839398 0.27755091
C 2.88746621 0.31673359 0.84215330
C 0.39107459 0.04765208 0.90961660
H -2.36480822 1.61412780 0.58015590
H -3.64641917 0.74368002 -0.43966409
H -1.98193769 1.13789853 -1.08002850
H -2.21328666 -0.64015278 1.38180930
H -2.45697695 -1.26110809 -0.32101677
H -0.49281497 -1.26451417 -1.92767044
H 2.13443373 -0.85458494 -1.70049810
H 3.57653624 0.50002624 -0.01861653
H 2.78867863 1.31346746 1.35136612
H 3.28364628 -0.47375686 1.48323735
H 0.23820183 0.45235442 1.90395539
B 0.01519862 2.90648851 -2.65392858
F -0.35780812 2.00736615 -3.73226634
F -0.54259270 4.21192023 -2.95865098
F 1.46120214 3.05053769 -2.60186066
F -0.51607351 2.37695692 -1.40780953
24
energy=-20641.98551128 config_type=Default name=EMIM-BF4
C 2.61638545 -0.93668879 -0.35665165
C 1.95647061 0.33374547 0.08972827
N 0.54303459 0.36096303 -0.18624874
C 0.01592251 0.83704761 -1.33948184
C -1.34633056 0.68705976 -1.20823290
N -1.64449305 0.13549555 -0.01016247
C -2.95393682 -0.18433210 0.51198081
C -0.45027513 -0.06107812 0.61429346
H 3.17687777 -0.77179285 -1.31961149
H 1.92123057 -1.77103581 -0.54525211
H 3.36940638 -1.24557734 0.38929592
H 2.45141073 1.18057089 -0.45637063
H 2.14513195 0.55140167 1.16281841
H 0.57357400 1.25007800 -2.18586874
H -2.03816346 0.98642255 -1.98811691
H -3.10910425 -1.29506877 0.57577130
H -3.19324216 0.28888473 1.47118799
H -3.70741078 0.14326647 -0.23420359
H -0.32648834 -0.48936194 1.59852694
B 5.28016939 0.38475093 1.17632219
F 5.01749864 0.41316715 2.60489916
F 4.67055031 -0.80887692 0.63616586
F 6.71721023 0.28339292 0.99939781
F 4.77470477 1.59968030 0.56256829
24
energy=-20643.35058192 config_type=Default name=EMIM-BF4
C -2.73219820 0.55423240 0.13421274
C -1.87183196 -0.20891162 -0.84401446
N -0.50019650 -0.32005872 -0.38708076
C -0.00225636 -1.32729103 0.38090460
C 1.33099497 -1.10979314 0.62233712
N 1.63624693 0.03601099 -0.00489571
C 2.94500027 0.65427068 -0.01994059
C 0.52347511 0.51303968 -0.61650179
H -3.66698033 0.86310335 -0.38035412
H -3.03354997 -0.12667514 0.95665067
H -2.26035805 1.48067368 0.48576223
H -2.25482382 -1.24626386 -0.93768867
H -1.87377258 0.28200874 -1.84057295
H -0.59152812 -2.18276434 0.74706526
H 1.94892958 -1.77385996 1.21052822
H 3.70226701 -0.04839937 0.35781585
H 2.95008314 1.63097078 0.52943473
H 3.25210729 0.89874103 -1.06397539
H 0.49839159 1.43096584 -1.19520946
B -2.09084048 -3.43411153 -0.65029051
F -2.42148155 -2.71662784 0.56185305
F -3.19018511 -4.30065752 -0.99757030
F -0.89797465 -4.22856006 -0.40647174
F -1.81116654 -2.51448098 -1.73205290
24
energy=-20643.42799821 config_type=Default name=EMIM-BF4
C 2.59099853 0.83187990 0.38529430
C 1.92709708 -0.24347671 -0.46055877
N 0.55286523 -0.37498858 -0.04767053
C 0.10425559 -1.20681959 0.91198123
C -1.27296272 -1.00864312 0.98046490
N -1.60258538 -0.06179611 0.05635676
C -2.96744305 0.40699382 -0.16042219
C -0.47627698 0.32200938 -0.57047694
H 3.66437254 0.93366665 0.14624103
H 2.42732647 0.53890401 1.44048185
H 2.11291589 1.81197814 0.13281694
H 2.50423313 -1.19372555 -0.28749761
H 2.00344837 -0.03819181 -1.54646760
H 0.64808791 -1.90432066 1.53258960
H -1.91954789 -1.53313731 1.65822904
H -2.91392381 1.27725610 -0.85662256
H -3.36285430 0.79483050 0.82227916
H -3.57580503 -0.41963384 -0.53400989
H -0.44420159 1.06721480 -1.35617970
B -1.22577949 0.19322004 -3.49786688
F -1.89451699 1.45222112 -3.21825561
F -0.63172067 -0.35016826 -2.29332950
F -2.21781331 -0.75498417 -3.98775456
F -0.15958071 0.35599567 -4.47438873
24
energy=-20642.36141795 config_type=Default name=EMIM-BF4
C -2.66504586 0.72332105 -0.17821620
C -1.89544538 -0.57564431 -0.33678894
N -0.52598594 -0.43496815 0.09757545
C -0.02457473 -0.64208679 1.33074403
C 1.34588919 -0.38395684 1.27796511
N 1.61433802 -0.02840863 0.00091054
C 2.93035797 0.33214911 -0.51776110
C 0.47508028 -0.06129790 -0.70982846
H -3.75414270 0.48077969 -0.27859835
H -2.43155766 1.42360421 -1.01874764
H -2.46543470 1.22768008 0.76499266
H -1.95501992 -0.89562405 -1.40039358
H -2.39914756 -1.31414835 0.34202762
H -0.59144531 -0.95499308 2.20867150
H 2.05418683 -0.45893318 2.11620794
H 3.73928422 -0.13356230 0.08209454
H 3.07702342 1.42987363 -0.42018950
H 3.03957655 0.07930867 -1.58794243
H 0.43206327 0.18690714 -1.77272319
B -0.87971577 2.91694706 3.38642180
F -1.28048786 2.06698226 2.27402873
F -1.49060945 4.21460543 3.22336532
F 0.56582118 3.08899712 3.39055808
F -1.26586010 2.27313410 4.62331720
24
energy=-20596.44105620 config_type=Default name=EMIM-BF4
C -2.69435479 -0.05216972 0.56932662
C -1.82310301 -0.84554908 -0.38469518
N -0.50468632 -0.27222276 -0.39419578
C -0.10704076 0.70503820 -1.23324667
C 1.22482785 1.00036451 -0.94783438
N 1.59848018 0.18909363 0.06176220
C 2.92378021 0.16528083 0.67596395
C 0.54541061 -0.57923314 0.39207965
H -2.05610306 0.16867391 1.45961265
H -3.60301442 -0.60118404 0.88676641
H -2.96717209 0.88563455 0.00809411
H -1.72996264 -1.88569222 0.00181536
H -2.28414511 -0.86672709 -1.41277839
H -0.72618495 1.16618513 -1.98790190
H 1.84908891 1.73496029 -1.43380073
H 3.27218386 -0.88334153 0.88023897
H 3.66454935 0.64569398 0.01370210
H 2.86600263 0.65247545 1.67265099
H 0.55144355 -1.32728089 1.17244003
B -4.05015219 -1.06871007 -0.96782884
F -4.39582961 -2.09181617 -1.94703058
F -4.73467271 0.16627749 -1.33138645
F -2.61759970 -0.82795797 -0.92609225
F -4.51735293 -1.44862047 0.35553245
24
energy=-20635.54698084 config_type=Default name=EMIM-BF4
C -2.65383086 0.42285126 0.46741672
C -1.89342902 0.29870694 -0.81222718
N -0.52016926 -0.07525477 -0.52955989
C -0.11716330 -1.37360841 -0.45112368
C 1.23950770 -1.35250067 -0.17030009
N 1.61188785 -0.06580256 -0.08832468
C 2.94124069 0.40406551 0.18854176
C 0.53412604 0.73817162 -0.30828241
H -3.58635190 1.01582583 0.33911453
H -2.91391514 -0.61628077 0.78243400
H -2.04920694 0.93258413 1.23894292
H -1.90040188 1.23651704 -1.41718644
H -2.37789126 -0.49599405 -1.43973524
H -0.73238675 -2.26083581 -0.58181817
H 1.91842633 -2.18213278 -0.03297537
H 3.61329364 0.01165668 -0.60332162
H 3.37083051 0.03851018 1.13939419
H 2.99191801 1.50275632 0.21423814
H 0.52351553 1.82076432 -0.30633344
B 4.10176786 1.88614670 1.56321272
F 5.25477166 1.31865817 0.85931004
F 4.44458619 3.12948637 2.23096219
F 3.03421314 2.17780744 0.60754214
F 3.55663566 0.90252381 2.49682576
24
energy=-20642.60333722 config_type=Default name=EMIM-BF4
C -2.68951907 0.39171732 -0.08012674
C -1.80548984 -0.66193609 -0.68228124
N -0.48761011 -0.52665061 -0.08784284
C 0.02728568 -1.09587074 1.00825446
C 1.31638240 -0.65756279 1.16494207
N 1.59375668 0.18948223 0.15342201
C 2.83427787 0.91253214 -0.11409393
C 0.48034623 0.25646878 -0.60061301
H -2.08769167 1.32339442 0.03992965
H -3.06180735 0.00085931 0.89788401
H -3.54319641 0.61038382 -0.78184113
H -2.20419541 -1.68476498 -0.56554430
H -1.73696827 -0.48053097 -1.78209422
H -0.50134633 -1.78097670 1.64572063
H 1.98366383 -0.93778797 1.95024744
H 3.20340323 0.69808215 -1.14722284
H 2.64209147 1.99991256 -0.09662766
H 3.62711810 0.57572004 0.56899412
H 0.40949894 0.86752807 -1.49110646
B -2.53776985 -3.96659839 1.52422973
F -2.73021407 -4.96671597 0.50652689
F -3.16921111 -2.72659554 1.09949894
F -1.10852170 -3.70485535 1.62779587
F -3.05743345 -4.39889965 2.80007060
24
energy=-20642.62106762 config_type=Default name=EMIM-BF4
C 2.66767942 -0.41420952 0.50255194
C 1.93889091 0.54358302 -0.42549096
N 0.54299132 0.21086690 -0.37934155
C -0.05402330 -0.68350248 -1.20814760
C -1.39465314 -0.76898925 -0.89974320
N -1.60654966 0.07978743 0.12190791
C -2.89662616 0.28494833 0.74297809
C -0.41994800 0.67014806 0.42966254
H 2.24518562 -0.28923026 1.51791575
H 2.44734780 -1.45714249 0.14651290
H 3.76743491 -0.20783853 0.46557015
H 2.04201902 1.58710226 -0.01164539
H 2.37816802 0.52192093 -1.44558728
H 0.44715601 -1.24352007 -1.99131856
H -2.11157177 -1.40761269 -1.40383838
H -3.56683987 0.70228122 -0.05839821
H -2.84603563 1.10174639 1.49695406
H -3.28588396 -0.63845978 1.17501810
H -0.29474153 1.40812051 1.22443967
B 2.82327293 -2.81983746 -2.57283986
F 2.63643666 -3.90177487 -3.50376237
F 2.19884450 -1.60110955 -3.04509000
F 4.24316749 -2.57903803 -2.43140290
F 2.22363362 -3.19446363 -1.31076648
24
energy=-20642.95561122 config_type=Default name=EMIM-BF4
C -2.52950074 0.85286387 -0.31317632
C -1.87217184 -0.46356464 -0.74813705
N -0.54421049 -0.43134097 -0.12201252
C -0.25858846 -0.91483761 1.10098286
C 1.08692174 -0.69053814 1.31021094
N 1.57592524 -0.07673905 0.20505529
C 2.94922730 0.34247858 -0.00375044
C 0.57015052 0.08144620 -0.67442312
H -2.03736354 1.63780114 -0.92543860
H -2.26326920 1.06899837 0.75612186
H -3.61670975 0.82229772 -0.37440966
H -2.46376305 -1.32936064 -0.40654553
H -1.75556098 -0.48071480 -1.85127954
H -0.98908696 -1.37797234 1.74490277
H 1.61761010 -0.97033628 2.20997018
H 3.13827769 0.31819563 -1.09468482
H 3.05931324 1.40426655 0.32795565
H 3.65385975 -0.33414394 0.49614301
H 0.67893944 0.54120036 -1.63748493
B -1.86379030 1.95427124 3.21634978
F -1.99797257 0.87712109 2.25977953
F -2.55127995 3.15858045 2.79265238
F -0.45923053 2.26224480 3.33616906
F -2.34692795 1.52597012 4.50675781
24
energy=-20599.53262186 config_type=Default name=EMIM-BF4
C -2.45290495 -0.60234047 -1.14631907
C -2.03325768 -0.25502409 0.26990448
N -0.61523297 0.12109629 0.21593248
C -0.20132124 1.39387754 0.01019209
C 1.18282479 1.32405523 0.02888062
N 1.58348091 0.05942210 0.23757466
C 2.96676862 -0.35363024 0.31232474
C 0.45931362 -0.66942972 0.35072456
H -1.55497947 -0.96293987 -1.69950233
H -3.29588506 -1.31108762 -1.18581039
H -2.73270821 0.36639490 -1.65501632
H -2.12307842 -1.13831387 0.92535012
H -2.63680990 0.59545002 0.59297587
H -0.81660408 2.27499821 -0.13698959
H 1.86637572 2.17868441 -0.10712839
H 3.40605675 0.25258382 1.14790242
H 3.48227376 -0.09394062 -0.62899052
H 3.07142540 -1.43037709 0.49399355
H 0.44426241 -1.74947894 0.52707504
B -3.48273840 0.36364442 -0.66097628
F -3.77223478 -0.56318593 -1.72387151
F -4.16311466 1.61162138 -0.96501464
F -2.04973760 0.61680599 -0.60698544
F -3.93723096 -0.13445577 0.62543201
24
energy=-20637.87656501 config_type=Default name=EMIM-BF4
C -2.55212482 0.80611715 0.23370701
C -1.88366595 -0.08154868 -0.81415137
N -0.57275221 -0.39081967 -0.27916349
C -0.17177468 -1.40424792 0.49854772
C 1.19091435 -1.24017021 0.73018945
N 1.59669282 -0.12434838 0.08609619
C 2.93860285 0.40629315 0.06754418
C 0.50462511 0.39164171 -0.53225948
H -3.53678457 1.12091986 -0.14925417
H -1.94924793 1.74023917 0.37975706
H -2.58051714 0.23267122 1.17099360
H -1.80648726 0.50123784 -1.74768723
H -2.52996566 -0.97711512 -0.87151926
H -0.80774440 -2.18820450 0.86318582
H 1.84562647 -1.87947033 1.32141920
H 3.72938426 -0.33082567 -0.05229484
H 2.99769627 1.12871534 -0.77933711
H 3.04921879 0.99900442 0.99838962
H 0.53830371 1.28991063 -1.12416290
B -2.74364636 -1.79194712 -1.94116041
F -3.46147739 -0.58345698 -1.59752848
F -2.02799877 -2.29232949 -0.77821505
F -3.68072622 -2.78560411 -2.39592499
F -1.74371518 -1.52130682 -2.96466875
24
energy=-20642.70012251 config_type=Default name=EMIM-BF4
C 2.77168450 0.06364188 -0.44058805
C 1.87763522 0.07101011 0.77899786
N 0.48067686 -0.12491452 0.43462761
C -0.12480245 -1.32355232 0.35465603
C -1.44767283 -1.15771025 0.00671313
N -1.62588152 0.18399669 -0.12223849
C -2.91353346 0.78280603 -0.48814640
C -0.46279775 0.78538480 0.13719889
H 3.78251375 -0.37469050 -0.19340749
H 2.98491511 1.09044613 -0.80554905
H 2.39750119 -0.58015551 -1.26294595
H 2.02243560 1.03980570 1.31494598
H 2.20918063 -0.79687785 1.40143459
H 0.32996507 -2.29610112 0.53120324
H -2.17028415 -1.95008909 -0.12840881
H -3.53302012 0.03317361 -1.02179944
H -3.48810786 0.98502687 0.46138281
H -2.77185126 1.72253456 -1.06607608
H -0.31855654 1.84626479 0.10799963
B -2.28209526 1.52836785 3.51432448
F -2.47621815 2.82686724 4.10594291
F -2.14364250 0.47799861 4.49081649
F -1.06492470 1.54665291 2.71674619
F -3.42763583 1.22743111 2.67257590
24
energy=-20639.79583910 config_type=Default name=EMIM-BF4
C -2.66176271 0.59537026 -0.23126116
C -1.91003858 -0.24652838 0.77640449
N -0.52435544 -0.32819603 0.29926307
C -0.09350019 -1.29996160 -0.52399215
C 1.24591441 -1.04235692 -0.74522041
N 1.61022115 0.06611443 -0.06486030
C 2.94235981 0.63385730 -0.06270258
C 0.49854902 0.49405352 0.57640427
H -3.73761089 0.68277514 0.01344290
H -2.14966593 1.57172782 -0.32653787
H -2.54017931 0.06454250 -1.21711033
H -2.36912615 -1.22802640 0.92717161
H -1.92355052 0.30201566 1.74699524
H -0.67079408 -2.11249083 -0.92890784
H 1.87515706 -1.67375083 -1.38573444
H 3.43608266 0.56162615 -1.05612982
H 3.55260440 -0.03600907 0.61078014
H 2.95170314 1.63258801 0.38689668
H 0.46799216 1.36264930 1.20509849
B 2.94516658 1.83608217 2.26511024
F 2.16942631 2.92546917 1.71998149
F 3.90444400 1.33852334 1.28584077
F 2.03127040 0.77601335 2.64636122
F 3.70405999 2.26155291 3.43128963
24
energy=-20625.98484381 config_type=Default name=EMIM-BF4
C 2.68982093 0.56779680 -0.37532542
C 1.86176283 0.24359274 0.83849485
N 0.51109185 -0.18000340 0.48757702
C 0.08220676 -1.44331715 0.24332945
C -1.27340084 -1.40080465 -0.05384584
N -1.62242555 -0.10056870 0.02134135
C -2.96922957 0.39880772 -0.22011334
C -0.53239684 0.64421837 0.35195109
H 3.44050662 -0.23566836 -0.52523930
H 3.17473029 1.57218291 -0.28760296
H 2.08957919 0.59846875 -1.30916831
H 1.85614078 1.13200324 1.50074232
H 2.33457658 -0.60349271 1.40646100
H 0.71799034 -2.32979479 0.28074604
H -1.89915585 -2.25953453 -0.29437587
H -3.69638006 -0.00046152 0.51668657
H -2.98710780 1.50226511 -0.13227710
H -3.27788047 0.16420543 -1.27899287
H -0.50042919 1.73010473 0.48683486
B 3.66823134 1.13706514 -1.80295993
F 3.16754452 2.46796554 -1.59573903
F 4.08901585 0.55795319 -0.54980413
F 2.59202149 0.32491858 -2.34427645
F 4.81583989 1.14594366 -2.69609540
24
energy=-20632.15021130 config_type=Default name=EMIM-BF4
C 2.63976179 -0.41970647 0.46218359
C 1.83247262 -0.35739612 -0.82897962
N 0.52472246 0.15599676 -0.48517456
C 0.09057127 1.43092662 -0.44669394
C -1.25210575 1.37823275 -0.05398946
N -1.60101676 0.08212972 0.13590312
C -2.92111520 -0.41452927 0.55246942
C -0.50160779 -0.63287225 -0.13371767
H 3.60692634 0.10482389 0.32331866
H 2.82140133 -1.49089145 0.69755051
H 2.12005168 0.10617040 1.29384528
H 2.33424669 0.29443864 -1.56754709
H 1.71557181 -1.35077876 -1.31182330
H 0.66645911 2.29881209 -0.67302925
H -1.89400670 2.24993171 0.07231502
H -3.10071891 -1.43458694 0.15022251
H -2.87300194 -0.52762711 1.66258084
H -3.72222834 0.24384345 0.21443944
H -0.48638372 -1.71691767 -0.06387347
B 2.34644325 -0.03258150 -3.52869528
F 2.04013269 -1.04870638 -4.51754013
F 1.70035500 1.21770745 -3.86286868
F 3.76587564 0.18393969 -3.47274485
F 1.88730823 -0.48501310 -2.24617998
24
energy=-20642.37719721 config_type=Default name=EMIM-BF4
C -2.59523669 -0.46763588 -1.02646318
C -1.97808164 -0.15450590 0.31766227
N -0.57185887 0.16829984 0.18964478
C -0.08795402 1.41363640 -0.00958487
C 1.29545243 1.35423884 -0.08397014
N 1.60919427 0.05179771 0.07550002
C 2.96747938 -0.47329553 0.06632293
C 0.49006055 -0.67720758 0.24198319
H -2.10271007 -1.32951082 -1.49457593
H -2.57179821 0.37398956 -1.71599648
H -3.66030990 -0.74878009 -0.83434288
H -2.48663522 0.68473080 0.79806220
H -2.06735619 -1.04768149 0.96396304
H -0.62299505 2.35194083 -0.10603102
H 1.98443663 2.17459471 -0.23730145
H 3.18883014 -0.96633661 -0.90603671
H 3.71554385 0.30214682 0.28417972
H 3.06815498 -1.25135271 0.83137219
H 0.42578362 -1.75906890 0.39381985
B -3.09879385 0.55224238 3.46172937
F -3.33410333 -0.44784878 2.44902423
F -3.85377199 1.75942912 3.13471573
F -1.68056127 0.82493056 3.54876610
F -3.57817861 0.04247684 4.74212491
24
energy=-20643.21240753 config_type=Default name=EMIM-BF4
C -2.66117410 0.64995870 0.25089742
C -1.86958059 -0.65040106 0.38177449
N -0.53074421 -0.46265970 -0.11569972
C -0.07109654 -0.64402399 -1.36862232
C 1.29254731 -0.33237385 -1.34525666
N 1.60500022 0.02515327 -0.08040276
C 2.90256810 0.43689738 0.44895195
C 0.49057725 -0.05380818 0.67407534
H -3.48916429 0.69869381 0.99640403
H -3.07120062 0.81213815 -0.75159297
H -1.94569426 1.46584348 0.54388367
H -2.38963993 -1.47862358 -0.13232337
H -1.84503885 -0.91905809 1.45855346
H -0.64706955 -0.96962847 -2.23237394
H 1.98870338 -0.36400426 -2.17291671
H 3.01147666 1.54771045 0.41520909
H 3.71909038 0.01896559 -0.18036258
H 3.08650912 0.04530118 1.46736078
H 0.42393052 0.17391917 1.74244082
B -0.02141263 3.15286285 2.22391940
F -0.27037039 4.35003617 1.42396238
F -0.77446373 2.01773451 1.69936620
F 1.39150846 2.84404991 2.21774676
F -0.42797057 3.37453590 3.59219847
24
energy=-20641.39550571 config_type=Default name=EMIM-BF4
C 2.73529067 0.18969077 -0.57874021
C 1.87684597 0.45519589 0.61496962
N 0.50248570 0.02725365 0.40982209
C 0.03224152 -1.20125210 0.70650999
C -1.32763965 -1.26901620 0.38297900
N -1.63483249 -0.04456237 -0.11043967
C -2.98040585 0.30973582 -0.57339927
C -0.53239223 0.71447725 -0.08687282
H 3.11844630 1.15433830 -1.00348634
H 2.23693434 -0.42881383 -1.36553904
H 3.65472624 -0.40085121 -0.29861071
H 1.78681173 1.55562270 0.84915340
H 2.33115313 0.02823660 1.53833412
H 0.57714283 -2.04611639 1.13180924
H -1.99653142 -2.11801144 0.50039381
H -3.73943436 0.06217985 0.20833802
H -3.15987249 -0.16920600 -1.54461363
H -3.01750712 1.42449768 -0.67041679
H -0.46346283 1.75660101 -0.42263927
B 1.76524096 -2.49904995 2.59948651
F 1.49661210 -3.53908455 1.63014602
F 1.10935770 -1.26255918 2.19328139
F 3.19863138 -2.25508192 2.69305837
F 1.23559421 -2.88468299 3.89943813
24
energy=-20642.40583017 config_type=Default name=EMIM-BF4
C 2.70470092 0.46145985 -0.34036309
C 1.89183049 -0.60907017 0.37089682
N 0.47433104 -0.49085040 0.03607651
C -0.17886173 -1.08287599 -0.98108200
C -1.50329566 -0.65542797 -0.87078807
N -1.61175557 0.16721769 0.18951603
C -2.82819331 0.83872711 0.66309101
C -0.37394909 0.25242629 0.73336729
H 3.60173448 0.68424188 0.26756499
H 3.04241293 0.07845049 -1.31311764
H 2.09688853 1.38700476 -0.48206179
H 2.23776138 -1.63688572 0.06060245
H 2.07105085 -0.55378598 1.46506517
H 0.24225939 -1.75560807 -1.73267073
H -2.29477197 -0.96214438 -1.55520759
H -2.97558049 1.79493348 0.12852273
H -2.76836622 1.08455571 1.72598167
H -3.68083083 0.14923094 0.52146693
H -0.14736513 0.84840047 1.60755583
B 1.09849762 3.57518121 -2.55441307
F 2.15788806 3.84746105 -3.49168255
F 1.68783931 2.88639710 -1.41708087
F 0.08203759 2.70290099 -3.12837255
F 0.43129530 4.79236415 -2.13063729
24
energy=-20642.97972851 config_type=Default name=EMIM-BF4
C 2.61413108 -0.81792006 -0.36935817
C 1.93315994 0.14387994 0.60820835
N 0.54135156 0.36598050 0.20237787
C 0.07448181 1.32995038 -0.63377167
C -1.30574951 1.15904036 -0.72832503
N -1.60202383 0.10431035 0.05259633
C -2.95030710 -0.42182551 0.24288248
C -0.49242559 -0.38745523 0.62378189
H 3.67800152 -0.52179408 -0.49158961
H 2.15247935 -0.73796110 -1.37959669
H 2.58776413 -1.87055931 0.00466663
H 2.51758373 1.06905446 0.67109232
H 1.95981614 -0.34934930 1.58286847
H 0.66845604 2.09408533 -1.13659817
H -1.96270701 1.78376105 -1.32900109
H -3.41525490 -0.49283076 -0.78366755
H -3.58739287 0.21878637 0.87082059
H -2.92294018 -1.43265481 0.69991526
H -0.48842431 -1.23649858 1.29269778
B -2.98299420 -4.07123112 0.86346259
F -3.70793561 -2.81652353 0.84597283
F -2.84375210 -4.47691465 2.25154236
F -1.65463405 -3.91674186 0.30912978
F -3.75619213 -5.04976783 0.14599167
24
energy=-20636.92439017 config_type=Default name=EMIM-BF4
C -2.56074391 -0.19376506 0.89714779
C -1.91123991 -0.64702634 -0.41033860
N -0.54929152 -0.13558432 -0.38894953
C -0.21297697 1.07810772 -0.88374087
C 1.16327905 1.25473334 -0.70567447
N 1.60273310 0.12279329 -0.10231975
C 2.96052800 -0.15578474 0.28160731
C 0.56390003 -0.71362597 0.08661398
H -3.58251227 -0.55767310 1.00276456
H -2.57687204 0.92563227 0.83217502
H -1.87694692 -0.44459282 1.71771979
H -1.90981378 -1.75410834 -0.36638582
H -2.42673693 -0.24514816 -1.29339372
H -0.90687978 1.78955986 -1.34166422
H 1.72010089 2.13103886 -1.00377064
H 3.61378806 0.69413035 0.00326023
H 3.30957700 -1.08420740 -0.24176841
H 2.95339240 -0.37258348 1.36838214
H 0.62671551 -1.69189595 0.54833522
B -2.40107863 -2.23966050 -1.57909089
F -2.57512810 -3.25647479 -2.58553197
F -3.08624873 -1.01899979 -1.96016549
F -0.98265228 -1.93219856 -1.48833835
F -2.84538242 -2.68568601 -0.27079205
24
energy=-20641.14134118 config_type=Default name=EMIM-BF4
C 2.70082822 0.51595697 0.06430892
C 1.83373083 -0.70053623 0.37187676
N 0.46945025 -0.48711759 -0.05047277
C -0.02487302 -0.79006745 -1.25737423
C -1.35314248 -0.42501331 -1.23269121
N -1.63571654 0.08249712 -0.03618892
C -2.88554909 0.60920659 0.49469646
C -0.50910684 0.05238059 0.71751688
H 3.37499057 0.31985015 -0.78876153
H 3.31287672 0.82244150 0.94492551
H 2.05412530 1.39614205 -0.15112227
H 2.26042395 -1.60287243 -0.10881961
H 1.83332659 -0.82297647 1.47389869
H 0.47925896 -1.22904195 -2.09928216
H -2.08232833 -0.52032199 -2.03867183
H -2.68771287 1.69650689 0.67042908
H -3.02119286 0.15400609 1.48034408
H -3.71692505 0.53261537 -0.20462942
H -0.40246430 0.39634412 1.75001756
B 3.70330675 1.74503205 -2.26841979
F 4.03841835 2.91403606 -3.06250701
F 3.28145382 0.64429370 -3.11712066
F 4.88448442 1.34640696 -1.54713112
F 2.59951176 2.08623807 -1.40418200
24
energy=-20642.87477812 config_type=Default name=EMIM-BF4
C -2.61309041 0.54512161 -0.57393384
C -1.87213081 0.35002439 0.72540402
N -0.53232089 -0.15935925 0.41129062
C -0.15230235 -1.44454541 0.29506225
C 1.20882128 -1.45603514 -0.01204501
N 1.61252202 -0.17325496 -0.07255118
C 2.92946293 0.36614014 -0.35658614
C 0.54475603 0.60297345 0.18661019
H -3.34122904 1.36755801 -0.42641858
H -3.18062186 -0.37905534 -0.86624295
H -1.85580567 0.78450726 -1.37099363
H -1.79732495 1.34207055 1.21647470
H -2.35322536 -0.39727264 1.38209296
H -0.79780833 -2.30333707 0.42016435
H 1.84564339 -2.32016882 -0.17616624
H 2.95591554 0.91811623 -1.34085080
H 3.69998252 -0.42312482 -0.36148765
H 3.16791224 1.09604390 0.42262118
H 0.53084373 1.68359791 0.21543531
B 1.78985337 4.32208336 0.73634974
F 0.70566460 3.39536801 1.03351766
F 2.16175949 5.02620660 1.95560388
F 2.95516512 3.63164574 0.24982073
F 1.33037871 5.29172026 -0.23218508
24
energy=-20643.61438806 config_type=Default name=EMIM-BF4
C -2.57555038 -0.75270705 0.15309381
C -1.88837453 0.17357275 -0.85051133
N -0.54229393 0.38296768 -0.29271991
C -0.16768500 1.36462167 0.56430732
C 1.18995038 1.17506755 0.82230497
N 1.58602809 0.09783233 0.12086431
C 2.92648153 -0.50103593 0.06269530
C 0.51890969 -0.37694671 -0.55601413
H -3.42298809 -1.29737546 -0.26467808
H -2.88315773 -0.12178417 1.00340586
H -1.82093544 -1.48065279 0.55111813
H -1.77851898 -0.36596309 -1.79781072
H -2.44358182 1.12719285 -0.91996317
H -0.78709322 2.14662751 0.97517138
H 1.81336884 1.78120765 1.46764411
H 2.97827321 -1.30824487 0.84636213
H 3.02532012 -1.03691381 -0.89587685
H 3.72274339 0.23092062 0.21241796
H 0.54910386 -1.23838672 -1.20181111
B 1.01870658 -2.77797312 -2.19996030
F 0.65977366 -3.78640307 -3.18361886
F 0.38895659 -1.53577804 -2.55672173
F 2.45959855 -2.60904554 -2.13523137
F 0.50103929 -3.19384801 -0.91032962
24
energy=-20642.67196842 config_type=Default name=EMIM-BF4
C 2.68911572 0.27635973 -0.58203890
C 1.90276328 -0.00719018 0.66947016
N 0.48815360 -0.26232127 0.35730349
C -0.06968409 -1.45814673 0.08193308
C -1.41078484 -1.21665209 -0.14679682
N -1.58560577 0.11868493 0.00466692
C -2.90099263 0.72912729 -0.16774469
C -0.41669083 0.70938473 0.31541969
H 2.97816846 1.36144380 -0.52087829
H 2.12935120 0.05354763 -1.51302866
H 3.63983375 -0.29093886 -0.59331468
H 2.33846176 -0.91332842 1.16430271
H 1.95161016 0.80563958 1.42526198
H 0.45310943 -2.40571065 0.05245211
H -2.14377473 -1.97441879 -0.39550421
H -3.34702854 0.44259098 -1.14017254
H -2.82374519 1.84520396 -0.14623478
H -3.57762121 0.42928799 0.64992679
H -0.29463953 1.75743636 0.48497663
B -2.95485566 -2.58728422 -2.77898774
F -3.57801206 -3.48755999 -3.71853846
F -3.20142891 -1.21318207 -3.20495467
F -1.52940643 -2.78625224 -2.66857187
F -3.61070207 -2.73960874 -1.48857907
24
energy=-20626.40740311 config_type=Default name=EMIM-BF4
C -2.67336906 0.51061149 -0.66547189
C -1.88819130 0.20481489 0.58669308
N -0.52269944 -0.21207217 0.29926601
C -0.07926452 -1.46314122 0.09097222
C 1.29713904 -1.35348502 -0.14417397
N 1.62368011 -0.05013190 -0.06835427
C 2.97389431 0.44921425 -0.25866754
C 0.49764187 0.65619403 0.20603414
H -2.56215658 1.55711456 -0.95442243
H -3.74856352 0.32656150 -0.39222978
H -2.40606797 -0.24090356 -1.42197404
H -2.41780933 -0.54408696 1.21068520
H -1.89257029 1.16298256 1.17732270
H -0.67352464 -2.38127548 0.10278554
H 1.93764500 -2.19331201 -0.34537963
H 3.64587623 0.12923636 0.58281583
H 2.99857716 1.55646841 -0.23435462
H 3.42849983 0.15339202 -1.21423650
H 0.46126309 1.73181825 0.32337648
B 2.90996052 -3.61722773 0.58785826
F 4.15556956 -3.34777475 1.27814316
F 3.04458741 -4.76047086 -0.28465370
F 1.84205366 -3.91103738 1.53776807
F 2.48353914 -2.44007038 -0.16184336
24
energy=-20642.37176293 config_type=Default name=EMIM-BF4
C -2.66890616 0.91093815 -0.19118085
C -1.92362437 -0.10070193 0.65925141
N -0.54847460 -0.28525327 0.23745354
C -0.18318637 -1.20554529 -0.67358786
C 1.18537954 -1.10383008 -0.83164502
N 1.63436213 -0.12691446 -0.01821729
C 3.02125861 0.28556995 0.10535094
C 0.56432415 0.36261124 0.62721908
H -3.67999388 0.54606086 -0.46555157
H -2.65573650 1.92392815 0.23251995
H -2.12444430 0.97928008 -1.17544590
H -2.44947415 -1.08979653 0.68410149
H -1.92827888 0.25465961 1.72465168
H -0.83419133 -1.90464829 -1.19515235
H 1.81300057 -1.70846826 -1.50138795
H 3.07301193 1.39123652 0.20265080
H 3.60138910 -0.08044592 -0.76966081
H 3.50453974 -0.21529285 0.99048717
H 0.59904476 1.16661233 1.35814353
B -2.08586616 0.79496081 4.42074758
F -2.37679384 2.00793842 5.15456213
F -0.91335564 1.00857216 3.59729708
F -3.25870062 0.49129358 3.60327478
F -1.84666924 -0.33262202 5.28641940
24
energy=-20642.03778397 config_type=Default name=EMIM-BF4
C -2.66327474 -0.02649448 0.70246583
C -1.90881165 0.23302274 -0.57589451
N -0.51195840 -0.10541865 -0.37674381
C 0.04994672 -1.29739187 -0.58998724
C 1.38415953 -1.15426093 -0.27013743
N 1.58033502 0.11787718 0.12451563
C 2.86741292 0.68421214 0.55207176
C 0.39878027 0.78588211 0.06209228
H -3.54059658 0.66639442 0.74936688
H -2.97717222 -1.09175527 0.74003543
H -1.96385941 0.11886466 1.56712456
H -1.99904715 1.29600485 -0.87618247
H -2.39199832 -0.42617843 -1.35420357
H -0.41365928 -2.23010987 -0.94646821
H 2.17918298 -1.88567063 -0.30646817
H 3.05398128 1.67546541 0.05702046
H 2.95271878 0.75893774 1.63337829
H 3.68738134 0.04263732 0.12150159
H 0.21647891 1.83798157 0.31612374
B 1.13808337 -3.86527764 2.77633513
F 0.89772542 -4.96258814 1.87573744
F 0.51377051 -2.65390972 2.30125815
F 2.56916396 -3.63831776 2.91316846
F 0.53871842 -4.18853965 4.06658554
24
energy=-20642.53363579 config_type=Default name=EMIM-BF4
C -2.64557876 0.60255818 -0.37921153
C -1.91772275 -0.12012046 0.73697221
N -0.52917624 -0.36952722 0.36193131
C -0.01198399 -1.43967058 -0.27130358
C 1.34598410 -1.21245068 -0.40017186
N 1.63569579 -0.01527006 0.15247034
C 2.92995749 0.63289095 0.24766082
C 0.47701452 0.49139872 0.61621660
H -1.95253805 0.88643983 -1.20107929
H -3.41649070 -0.05723304 -0.82719949
H -3.13515194 1.52963692 -0.00126240
H -2.42765662 -1.06833141 1.00422724
H -1.92197221 0.50705510 1.65268317
H -0.58667579 -2.30112850 -0.60324767
H 2.03611723 -1.89901658 -0.87076990
H 3.33102038 0.41896895 1.26374770
H 3.64212214 0.23703278 -0.51948304
H 2.78498741 1.73175973 0.11454795
H 0.36204799 1.44500737 1.11840497
B 2.65331169 -1.36955337 -3.88991066
F 2.50629053 -2.46843560 -4.81296434
F 1.96485415 -0.19841930 -4.38587634
F 4.05723068 -1.05084478 -3.77972882
F 2.13659810 -1.69655812 -2.57957318
24
energy=-20642.22799757 config_type=Default name=EMIM-BF4
C -2.61431574 0.10811495 0.66371033
C -1.88874132 0.46989424 -0.62842733
N -0.52540146 -0.02422518 -0.49162035
C -0.03770663 -1.23479342 -0.83775979
C 1.30575536 -1.22965236 -0.51489159
N 1.61432780 -0.02165903 0.02045083
C 2.90917499 0.41820037 0.49775621
C 0.48761933 0.71517711 0.03291516
H -1.87719108 -0.00209045 1.49499999
H -3.18893146 -0.83341596 0.57339198
H -3.31901888 0.90077226 0.96033388
H -1.86339600 1.55356827 -0.73722783
H -2.39043266 -0.06601319 -1.46543820
H -0.61390694 -2.04851495 -1.28640640
H 2.01041662 -2.05040859 -0.66019653
H 2.92654001 1.52536123 0.51076671
H 3.71253689 -0.03514050 -0.10687085
H 2.95665604 0.11096769 1.57036532
H 0.39601513 1.74385749 0.40414845
B 3.36234579 0.85717520 -2.90300140
F 3.16027557 -0.20290677 -3.85526203
F 2.63300165 2.04588866 -3.29114791
F 4.76972165 1.14308129 -2.79603401
F 2.86568163 0.42169180 -1.61158745
24
energy=-20642.81629643 config_type=Default name=EMIM-BF4
C -2.69552067 0.42278122 0.77235773
C -1.92116541 -0.15297852 -0.38544370
N -0.52600025 -0.32926551 -0.09449767
C 0.07052993 -1.42360626 0.43172596
C 1.42153137 -1.17503921 0.54802812
N 1.59583387 0.07266632 0.08361880
C 2.88337630 0.74700145 0.02194201
C 0.42329640 0.60474667 -0.31223796
H -2.07516638 0.65000610 1.65505134
H -3.47375233 -0.29096874 1.09501036
H -3.19454532 1.36416564 0.44597373
H -2.34718898 -1.14171793 -0.66477793
H -2.00244200 0.51208810 -1.27459346
H -0.40812658 -2.35245817 0.72216616
H 2.16260307 -1.86441694 0.93740309
H 3.48889557 0.42288535 -0.86545395
H 2.77458380 1.85503370 0.05081890
H 3.50177989 0.48755721 0.91031213
H 0.32147772 1.59151951 -0.71746460
B -1.02806158 0.16162067 -3.78767159
F -1.78793348 1.19310100 -4.46658395
F -0.35854336 0.75228880 -2.65374173
F -1.95647084 -0.84696584 -3.33918768
F -0.01014119 -0.43698709 -4.63222766
24
energy=-20641.92387696 config_type=Default name=EMIM-BF4
C -2.64455749 -0.36431831 0.61689262
C -1.90948200 -0.10071524 -0.68017574
N -0.52641229 0.25952532 -0.38742186
C -0.01369562 1.49305153 -0.16892500
C 1.34353629 1.31203994 0.06488395
N 1.60416807 0.00457854 -0.01746655
C 2.91699025 -0.62103065 0.16366924
C 0.47164908 -0.66135780 -0.29425361
H -3.28198547 -1.27287049 0.52009181
H -1.93787846 -0.59761182 1.45293328
H -3.26243429 0.50762630 0.86818193
H -2.41068579 0.73250226 -1.21027569
H -1.92533041 -1.01816513 -1.27149326
H -0.58412139 2.41204606 -0.18290654
H 2.06293255 2.09060926 0.27624411
H 3.20524806 -0.58056857 1.25079742
H 3.68022512 -0.17363783 -0.50164467
H 2.85899523 -1.69698607 -0.07648064
H 0.35283855 -1.72471729 -0.42265079
B 0.07231581 2.61676548 2.38807591
F -0.18453841 1.56046596 1.44645067
F -0.60229016 3.80941240 1.90856692
F 1.49024204 2.89609092 2.45269769
F -0.44344462 2.33126603 3.70602501
24
energy=-20608.42123541 config_type=Default name=EMIM-BF4
C -2.70710155 0.22329274 0.63828388
C -1.87093689 -0.71625622 -0.18933753
N -0.50418996 -0.23338322 -0.33828943
C 0.00785386 0.56539829 -1.29558463
C 1.36291964 0.74448378 -1.00611505
N 1.61386762 0.03826225 0.12625298
C 2.92284704 -0.03299194 0.76225688
C 0.47068214 -0.55571395 0.52822243
H -3.33969731 -0.37740159 1.32261831
H -2.09336213 0.89284716 1.27508021
H -3.39030829 0.84896316 0.01862684
H -2.30386048 -0.77443722 -1.22728510
H -1.83950416 -1.73737771 0.23617698
H -0.54698619 0.98552369 -2.13407301
H 2.07958751 1.33246614 -1.57267816
H 3.62752421 -0.69672960 0.24328904
H 3.36546055 0.99555621 0.79913318
H 2.77344226 -0.31804848 1.82663518
H 0.37176214 -1.18445350 1.40538352
B 3.45493071 1.34297745 -0.36503780
F 3.84294014 2.47120597 -1.18215395
F 2.40085621 0.59627241 -1.02184601
F 4.63219875 0.53717169 -0.12956129
F 2.93099103 1.84158482 0.88929188
24
energy=-20626.76984783 config_type=Default name=EMIM-BF4
C -2.64855641 -0.41420947 0.53205092
C -1.92424088 0.11658359 -0.67210124
N -0.52958212 0.34478556 -0.30431585
C 0.02177568 1.46176205 0.19588168
C 1.38111486 1.20738038 0.38958944
N 1.61218876 -0.06710161 -0.00294247
C 2.87127823 -0.78994456 0.00814779
C 0.43271491 -0.59028656 -0.42807809
H -2.86054645 0.41204231 1.21725367
H -2.00849348 -1.20156479 0.98656011
H -3.60241170 -0.90360470 0.20454174
H -2.02507551 -0.58272772 -1.50834587
H -2.31618498 1.12662316 -0.94502771
H -0.48867977 2.39398366 0.41223796
H 2.12537116 1.91105995 0.78693111
H 3.70403172 -0.03602598 0.03610220
H 2.95892768 -1.46931322 0.86795209
H 3.00593834 -1.31157480 -0.96724431
H 0.29042997 -1.60786726 -0.80919317
B -1.17031270 3.15000736 1.31112661
F 0.04023319 2.86791097 0.56254310
F -1.44790722 2.08222905 2.24367534
F -2.33288282 3.30994788 0.45678348
F -0.96775361 4.38293942 2.03264381
24
energy=-20642.37292189 config_type=Default name=EMIM-BF4
C -2.63075078 0.74804084 -0.08744556
C -1.92779079 -0.55903482 0.25180566
N -0.54622504 -0.42013312 -0.14456469
C -0.07598995 -0.74895570 -1.37480219
C 1.28645482 -0.49150399 -1.41484158
N 1.62572801 -0.00744919 -0.20179762
C 2.97603111 0.38747254 0.16556414
C 0.51011544 0.03363135 0.56457301
H -3.66712622 0.53809010 -0.48376229
H -2.07185895 1.34360983 -0.83021941
H -2.76323765 1.33405762 0.85157267
H -1.97516220 -0.76871052 1.33889534
H -2.38244433 -1.38417558 -0.29971592
H -0.69195830 -1.14886843 -2.18238151
H 1.94573432 -0.65729569 -2.27987188
H 3.47102180 -0.51261770 0.62298838
H 2.89857951 1.20810839 0.89191600
H 3.54171164 0.72598015 -0.72382052
H 0.47716759 0.37975391 1.59169754
B 1.27080779 0.62056119 4.75956043
F 0.99808255 -0.30540988 3.68307465
F 0.54778551 1.85166977 4.54757166
F 2.70070439 0.86955197 4.81430463
F 0.87490969 -0.00625864 6.01481833
24
energy=-20625.22308717 config_type=Default name=EMIM-BF4
C 2.70166538 0.14922062 0.60918955
C 1.86023071 -0.64705281 -0.33861559
N 0.50692474 -0.15944186 -0.41627108
C 0.00643096 0.77206185 -1.25586183
C -1.34062845 0.90439164 -0.95206288
N -1.64263280 0.05044296 0.06989720
C -2.94557107 -0.13252580 0.69943761
C -0.50634074 -0.56682166 0.35945711
H 2.15479886 0.30508408 1.56674847
H 2.99056446 1.11875953 0.15120545
H 3.67131531 -0.39726676 0.75017589
H 1.85541060 -1.71517327 -0.03537699
H 2.37002148 -0.63069450 -1.33170242
H 0.60191500 1.27082034 -1.99170415
H -2.03369395 1.56780547 -1.43836190
H -3.49735120 -0.99015702 0.24418381
H -2.77507659 -0.32431012 1.75845512
H -3.57321082 0.74883680 0.57292728
H -0.40477188 -1.32397948 1.14308487
B 0.55211386 2.33576883 -2.76707028
F 0.34027527 1.34312410 -3.79106248
F -0.15838364 3.54908839 -3.14759476
F 1.97593013 2.62585528 -2.69729896
F 0.07785145 1.88462163 -1.47735322
24
energy=-20642.21594131 config_type=Default name=EMIM-BF4
C -2.60463542 0.22454870 -0.79272604
C -1.89865099 -0.76677319 0.13082776
N -0.54987168 -0.26870921 0.33520791
C -0.16708365 0.56855542 1.31776913
C 1.20101699 0.79571640 1.15598865
N 1.62179512 0.09926856 0.08823263
C 2.95324335 0.03833034 -0.44383323
C 0.55270088 -0.53768472 -0.39568475
H -1.87033828 0.74119265 -1.40990597
H -3.36874265 -0.35560366 -1.33705240
H -3.07309604 0.97423356 -0.09843599
H -1.78357795 -1.73080835 -0.43712304
H -2.45969249 -0.93499945 1.06241766
H -0.83424214 0.95877361 2.06215682
H 1.79252500 1.43216132 1.80110899
H 3.68438009 0.55042343 0.20108596
H 3.30717207 -1.02962795 -0.50080141
H 2.92266807 0.42151094 -1.48230716
H 0.57442971 -1.18050836 -1.25692552
B -3.42142380 -2.62036977 -2.67157193
F -3.66317346 -3.56758651 -3.74453571
F -4.17764532 -1.42383464 -2.95363795
F -2.00004500 -2.34909151 -2.62102549
F -3.83545700 -3.18645625 -1.39719688
24
energy=-20642.57739855 config_type=Default name=EMIM-BF4
C -2.79788644 -0.06739296 0.05915620
C -1.77005149 0.68461370 -0.75950720
N -0.42293617 0.19306835 -0.56567378
C 0.15548025 -0.78831808 -1.30002340
C 1.43036047 -0.98586969 -0.83255179
N 1.60684178 -0.11758464 0.18271755
C 2.83427941 0.02052849 0.98122246
C 0.47288813 0.60600383 0.34839053
H -2.93942031 -1.10327122 -0.26478738
H -2.50366697 -0.00893562 1.14478322
H -3.74449120 0.53865965 -0.05157242
H -1.82092363 1.75324118 -0.48201178
H -2.06231611 0.63288774 -1.83050244
H -0.27848076 -1.35365674 -2.13050958
H 2.12805145 -1.71871157 -1.23977514
H 2.90854720 -0.77429083 1.72325665
H 2.81591317 1.01132385 1.49875585
H 3.69291291 0.08802975 0.27023951
H 0.29489831 1.38967480 1.08558598
B -1.76674867 4.29178681 -0.96954761
F -2.04832255 3.27234619 -1.94239976
F -2.47525819 5.49441154 -1.31081036
F -0.35349554 4.54855625 -0.89982650
F -2.22326086 3.86595069 0.34238332
24
energy=-20639.55163690 config_type=Default name=EMIM-BF4
C -2.62023745 0.59101174 0.38980039
C -1.88651210 -0.19035453 -0.69279390
N -0.51127059 -0.38521434 -0.26328694
C -0.02622375 -1.42568520 0.45758368
C 1.32275268 -1.18601019 0.62650796
N 1.58736446 -0.02950942 0.00956341
C 2.89948150 0.62819299 -0.07496571
C 0.49173978 0.47540586 -0.53752672
H -2.84088584 1.63766025 0.02951289
H -3.52869571 0.05948773 0.72191980
H -1.96776674 0.71455240 1.29074571
H -1.87513227 0.36991084 -1.63610424
H -2.39894862 -1.14937914 -0.90030493
H -0.58407420 -2.28597052 0.83373356
H 2.05969660 -1.77535156 1.14082132
H 3.12462482 0.74838063 -1.13825808
H 3.65262973 0.13254889 0.53592168
H 2.71535790 1.67467095 0.30806316
H 0.38609980 1.39565260 -1.10093303
B -3.09381473 -2.01996487 0.84470505
F -3.80208612 -0.90792557 0.22601459
F -2.07935494 -2.55260273 -0.04758387
F -4.05478835 -3.04890725 1.16901311
F -2.43107639 -1.59034947 2.06450306
24
energy=-20623.33436602 config_type=Default name=EMIM-BF4
C -2.68742280 0.57929673 0.32501117
C -1.90993978 -0.39873039 -0.55946891
N -0.51395941 -0.45651222 -0.14799765
C 0.03380466 -1.28287357 0.75618955
C 1.38944816 -0.98560541 0.82919826
N 1.63331301 0.01217326 -0.03034832
C 2.88334751 0.69123566 -0.33726736
C 0.45086326 0.31540463 -0.61388527
H -3.52232553 1.06280126 -0.22461179
H -2.95915069 0.16228472 1.29884622
H -1.95795953 1.41213538 0.54709503
H -2.05579586 -0.08525615 -1.60057566
H -2.38707325 -1.40005411 -0.44721251
H -0.45932882 -2.05373905 1.34208574
H 2.14374352 -1.45359637 1.45518116
H 3.68495185 0.35459101 0.34015643
H 2.77673738 1.79881837 -0.14690019
H 3.14539854 0.63283306 -1.41555794
H 0.31134776 1.09479319 -1.36993796
B -3.67324552 0.48425995 -1.56988769
F -3.93786151 -0.58046265 -2.51989747
F -4.41953665 1.66595118 -1.92416604
F -2.26116898 0.73962470 -1.49076604
F -4.15111790 0.04007657 -0.26977937
24
energy=-20642.13615434 config_type=Default name=EMIM-BF4
C -2.66528296 0.86404077 -0.22496776
C -1.97139085 -0.42356749 0.08627153
N -0.54617418 -0.37165247 -0.10690230
C 0.12381703 -0.66160444 -1.24855101
C 1.47750245 -0.49751573 -1.04833564
N 1.61273940 -0.09904545 0.24887837
C 2.87658859 0.19703030 0.91343604
C 0.39405228 -0.03156138 0.78803300
H -1.98605083 1.73261417 -0.30271000
H -3.42002706 1.09956020 0.53626413
H -3.21980637 0.75854031 -1.18903720
H -2.34635335 -1.23740021 -0.58775128
H -2.17139783 -0.75583867 1.12863132
H -0.31220764 -0.98133431 -2.20526801
H 2.26537260 -0.65383004 -1.77359483
H 2.91692493 1.24448916 1.28441943
H 3.09692795 -0.54652697 1.71009985
H 3.70882096 0.10823804 0.18521177
H 0.16594490 0.25536422 1.80587258
B -4.17468613 -1.45362504 3.22687919
F -4.45796361 -2.48681198 2.26780869
F -4.82141727 -0.21711030 2.81332677
F -2.75591595 -1.22226099 3.32800430
F -4.71846999 -1.82687105 4.52235373
24
energy=-20601.19515704 config_type=Default name=EMIM-BF4
C -2.52442902 0.96932565 0.14738190
C -1.94575956 -0.18342118 -0.63906917
N -0.59036230 -0.37703936 -0.15146635
C -0.19039966 -1.18160228 0.87240245
C 1.19808221 -1.03807855 0.96942787
N 1.57958856 -0.17131836 0.02204217
C 2.95423630 0.27002608 -0.23422329
C 0.49381759 0.23275167 -0.66169447
H -2.81640846 1.77363765 -0.58489430
H -1.77832407 1.45658645 0.81991139
H -3.40271706 0.61999285 0.69161553
H -2.50558209 -1.13141628 -0.43163866
H -1.88149803 -0.00262479 -1.72071431
H -0.83599608 -1.80428369 1.48184529
H 1.82781396 -1.55290274 1.69620318
H 3.57511702 -0.62344550 -0.32626609
H 2.98669053 0.94227483 -1.09199367
H 3.35203260 0.85473117 0.64153276
H 0.50409757 0.94680638 -1.50040220
B -5.04562594 1.08137551 -0.01333479
F -5.83908828 1.44042735 1.13460222
F -4.75050342 2.26814402 -0.79351239
F -3.77355169 0.51220443 0.38419671
F -5.77525812 0.15966751 -0.85357118
