48
Properties=species:S:1:pos:R:3:forces:R:3 energy=-41279.2283760364 pbc="F F F"
C       -2.69088700       0.27028400       0.58952300      -4.19990671       3.11402845       4.62810109
C       -1.85726700       0.16853300      -0.55795900       1.54374129       0.74990744      -6.73680023
N       -0.46013400      -0.23342600      -0.27703500      -1.49498173      -1.89407105      -0.57683857
C       -0.09396200      -1.54967600      -0.27435000       7.47963960       0.45839114       1.63335110
C        1.34655200      -1.55235900       0.06754300      -5.66485443       0.13273114      -0.44332104
N        1.65830900      -0.19045800       0.17485700       5.04690364      -4.35377763       1.32465239
C        3.00835000       0.22522900       0.51556500      -0.39765979      -3.61388849      -3.40958031
C        0.62724900       0.53362200      -0.02738200      -5.19717097       5.14480614      -0.64386972
H       -2.00530200       0.71514600       1.39540300      -1.48220110      -1.17468377      -0.18442231
H       -3.50756500       1.10242000       0.38957800       1.70021449      -1.86419462       0.41166208
H       -3.27426200      -0.65825000       0.84421700       1.07759718       0.67789945       0.29612788
H       -1.69512800       1.16425200      -1.07370400      -0.59436618      -0.65132730       0.39552540
H       -2.26615200      -0.54448300      -1.35975600       0.70463751       0.81502393       0.97416642
H       -0.59975100      -2.43490000      -0.35350200      -2.76105261      -2.61733975      -0.52056635
H        2.01972500      -2.36222800       0.23245400       0.98242016      -0.82654669       0.18164895
H        3.02781100       1.16645300       0.91141000      -0.15113084       3.59086287       1.98772522
H        3.47303800      -0.55377700       1.14306700      -1.03605449       0.60152949       0.54626377
H        3.65897800       0.23717100      -0.43135100      -3.70903498      -0.57897538       0.78007938
H        0.53313100       1.59646400      -0.02317600       0.29137791       1.32154461       0.14293515
B        0.74533200      -0.82559000       3.55388900      -1.85922920      -1.38646685       0.29900089
F        0.36444100      -1.80252100       2.48651000       0.75321425       0.07138792      -0.23682892
F        0.00514500       0.31550800       3.21908300      -0.27684259       0.62639962       0.10462551
F        2.08577000      -0.59224300       3.53635100       1.61663301       0.24176777      -0.35794515
F        0.35421700      -1.42760700       4.79777700       0.03375228       0.54572767      -0.88690037
C        5.42937700       0.13397100       0.30530700      -2.62456709       0.09044726      -0.30103922
C        6.24766600      -0.03024700      -0.92383000      -0.66234877       3.37397421      -2.68990092
N        7.57215000      -0.40209700      -0.63177500       3.96520983      -1.68468484       0.83738497
C        8.04500400      -1.68073400      -0.51197400       2.35851804      -2.19520019       0.15562685
C        9.43127600      -1.69144500      -0.25227400      -6.61428110      -4.91012404      -0.91750521
N        9.78374700      -0.47260900      -0.19766700      -0.02165749       8.72185960       1.57482886
C       11.05900900       0.05631600       0.20104400       6.39336121       1.37269437      -1.89220686
C        8.65908000       0.35742000      -0.29185600       1.05102192       3.88311464      -0.24873099
H        5.96518000       0.63568500       1.06643900       1.36651178       0.08231521       1.85733976
H        4.61822900       0.88746200       0.00828300       3.76513521      -0.70998666       0.94812745
H        4.86882800      -0.83926500       0.59926700       2.65149479       1.87610847      -0.25309909
H        6.37960600       0.96072400      -1.48105900      -0.57758818      -0.89596658       0.69214331
H        5.86610700      -0.71922400      -1.66185100      -0.65578772      -0.93209749      -0.53350339
H        7.48578400      -2.53504000      -0.68454400      -1.92860953      -2.16664318      -0.43343657
H       10.02998100      -2.49330100      -0.07889700       2.50118338      -3.23683661       0.58680230
H       11.15958300       1.14440800       0.63734300      -1.16918478      -2.44571043      -0.47245449
H       11.66509900      -0.71792900       0.81694200      -1.37639842       1.38819576      -0.55989201
H       11.63328000       0.12431500      -0.85649400      -0.81253686      -0.00981669       2.58185191
H        8.74440900       1.46544000      -0.41274900      -0.15642323      -0.85091849       0.18417488
B        8.76061900      -0.98213300       3.24823300       2.12549273       0.35330827       1.67357211
F        8.57709100      -1.77036800       2.15643700      -0.83597388      -3.40628068      -3.00855303
F        8.06061100       0.13603200       2.98123800      -1.51081028       3.35836393      -0.29321466
F       10.18647300      -0.77452700       3.19073100       0.54588881       0.49756286       0.44410725
F        8.40803000      -1.48960300       4.48980700      -0.20009608      -0.72916068       0.34094327
48
Properties=species:S:1:pos:R:3:forces:R:3 energy=-41276.2144650898 pbc="F F F"
C       -2.76026800       0.33588200       0.20162800      -1.11215251      -3.59468851       3.62184026
C       -1.94336500       0.07695700      -0.99688000       5.59887932       7.95902720      -0.73121014
N       -0.42651400      -0.33020800      -0.62225600     -12.44771595      10.14288830      -2.84828418
C       -0.16564700      -1.52088500      -0.57092800       6.12701317     -13.76419656       0.56640839
C        1.22529400      -1.55125100      -0.31972400       0.01818508      -4.01387861       0.99351554
N        1.64515700      -0.27368500      -0.24246700      -1.67407059       1.77247816       0.83718109
C        2.89636700       0.25211500       0.20413400       0.40517484      -0.88313316      -6.80296574
C        0.54747400       0.50770300      -0.39840200       2.13317326       2.14452187       0.47209343
H       -2.11658700       0.74708500       1.03669800      -0.51746397      -1.06857521      -0.43677459
H       -3.48106500       1.09370800       0.04614700      -1.55554013       1.21741667      -0.78244758
H       -3.32890600      -0.67681600       0.45326300       1.37292236       2.59310429       0.25802836
H       -1.71461400       1.21392200      -1.47360800      -0.75599802      -3.60031549       1.02141459
H       -2.32153900      -0.48237000      -1.78471300      -0.90432640      -2.48618916      -2.08330779
H       -0.72492500      -2.44565500      -0.74818200      -0.68939960       0.60193757       0.04035885
H        1.91602000      -2.37313000      -0.12889300      -0.02658927      -0.29076407      -0.10286844
H        2.99711800       1.24448900       0.59582100      -1.85265382       0.75295659       0.89515860
H        3.32454500      -0.52362000       0.75089300      -0.44603939      -1.20958670       1.75777858
H        3.45378800       0.23720500      -0.86024100      -0.72981318       0.37705447       2.70520690
H        0.59356700       1.54753900      -0.39355300      -0.44931942       2.51084951      -0.02963272
B        0.62230900      -0.87688500       3.20058900       1.34662271       2.01585454       0.67085762
F        0.33928100      -1.71188400       2.07211600      -0.30456868      -0.76049237       0.00174270
F       -0.08958900       0.36874900       2.92410200       0.53605488      -0.65912241      -0.07375747
F        2.07106900      -0.67067100       3.16998400      -1.37950181      -0.02898527      -0.16783011
F        0.26160100      -1.27972100       4.51992200      -0.05548935      -0.46410377      -1.40752010
C        5.14140500       0.41965700       0.66981300       1.52211526       1.17583208       9.65471528
C        6.03719600       0.28827300      -0.38393400       1.09524755       1.64739395      -9.45452375
N        7.38145700      -0.17456500      -0.25515300       1.06454525       0.81954229       1.46177190
C        7.82221500      -1.47330400      -0.10025600       1.96209117       1.49878758      -0.22685631
C        9.14013200      -1.40664600       0.14152100       2.18746203       0.27111456       1.37164072
N        9.50035000       0.00280800       0.27083400       6.99516492      -6.14814600       2.42069102
C       10.85627400       0.48261200       0.78682500       3.41096488      -6.43477520      -7.06206149
C        8.43174500       0.64250300       0.12077600      -5.70450768       8.62487351      -1.04009683
H        5.85539700       0.83405400       1.56137300      -2.20773669      -1.24137075      -1.59525836
H        4.45333700       1.24128900       0.46694400       1.31036049      -0.18243215       0.46652471
H        4.60609000      -0.53705600       1.02615400       2.92976545       1.93922099      -0.14230411
H        6.14036900       1.28662800      -0.97600600      -0.06044867      -1.28850697       1.32548268
H        5.67204600      -0.35752600      -1.20519700      -0.55629855      -0.34211741      -0.00749180
H        7.28824800      -2.32788300      -0.21205600      -2.69899157      -3.27233131      -0.56090400
H        9.83104800      -2.20185200       0.36575600       0.68207940      -0.45949027       0.05748850
H       10.98225200       1.46590800       1.09930800      -0.53723053       2.78964879       1.70239071
H       11.33975000      -0.42952400       1.36900300      -1.23486072       2.55394252      -0.54174023
H       11.47871500       0.45240000      -0.41437200      -1.66659843       0.28448885       4.67989343
H        8.54499200       1.78386000       0.06578600      -1.25623927      -1.61676862       0.07506410
B        8.57379100      -0.70003500       3.66946600       0.22880942       0.07988747       0.55269698
F        8.24861500      -1.63664800       2.58363400       0.32751230       0.76088029       0.62141224
F        7.90368500       0.60079700       3.30003600       0.75479455      -2.17290419       0.73067014
F       10.00124700      -0.46034600       3.69665200      -1.51626688      -0.22287395      -0.25980961
F        8.18244300      -1.34615000       4.95887100       0.32176840       1.68725780      -2.60335987
48
Properties=species:S:1:pos:R:3:forces:R:3 energy=-41269.1265574431 pbc="F F F"
C       -2.50060700       0.27701600       0.63650200      -1.10833945      -0.42069291       0.15734482
C       -1.51460400       0.10935200      -0.55788800      -4.06019187      -6.43500948       1.51799201
N       -0.16284300      -0.34192000      -0.24200500     -10.27983252      -3.77101658      -2.43995957
C        0.14756900      -1.63886800      -0.24427000       4.53292995      -7.05559472       1.31569525
C        1.56550300      -1.68286000       0.13291000     -13.52819145      13.35349488      -2.13121936
N        1.89621800      -0.26710400       0.23713300       3.30519907      -5.70005515       0.63796350
C        3.33419400       0.20529300       0.42735400     -12.27840865      -3.47578863       5.13987389
C        0.81902400       0.38030400      -0.05783100       4.99998500      14.14672980       1.90276991
H       -1.82342800       0.69326200       1.40307500      -1.01333839       0.03744079       0.86528071
H       -3.30416700       0.99917800       0.28930800       1.08793522      -0.42430075       0.64498624
H       -3.08872700      -0.67472300       0.96021300       1.78801380       1.54261596      -0.46909016
H       -1.48382500       0.93844300      -1.06863700       0.77085932       6.62882958      -3.48011776
H       -2.01588000      -0.60947900      -1.26777300       0.99472907       0.08164482       0.42608290
H       -0.50045300      -2.58210800      -0.31813000       0.50937397       2.08161041      -0.06662177
H        2.12009400      -2.36589100       0.25342200       9.99292966     -11.86740523       2.16058372
H        3.25197100       1.13668200       0.98508900      -0.82271756       0.45965388       0.23259219
H        3.76337500      -0.58427100       1.18555100      -5.29322799       1.30720004       0.72294484
H        3.81114300       0.16321400      -0.47013500      -2.54380981      -1.08374473      -4.56035318
H        0.82304300       1.55829700       0.03568400      -0.40920731      -2.78222922      -0.47214152
B        0.87648900      -0.94148300       3.60530000       4.18246550       3.12190599      -6.73195443
F        0.55809300      -1.89459800       2.47073300       0.65719924       1.07374075       0.30228924
F        0.27032500       0.30578200       3.35920200      -0.42027912      -0.29072054      -0.28329586
F        2.38797700      -0.64909200       3.57394200      -1.89880225      -0.50719722      -0.83622892
F        0.64947000      -1.49058400       4.70668000      -2.11500950      -3.30597150       6.53533328
C        5.28794700       0.41001000       0.32525400       1.78019448       1.14874767       1.41506382
C        6.15587600       0.19124900      -0.92993400      -6.90435787       8.07577555       1.10082629
N        7.36151500      -0.18269600      -0.54893100       7.96875105       2.23696625       0.75849630
C        7.88022500      -1.40750100      -0.56754600      -5.05497805      -5.02174082      -1.13374423
C        9.09213800      -1.40034600      -0.21730600      12.80827653      -3.21667046       2.88439797
N        9.62033900      -0.06968800      -0.08100700      -2.98663391      -2.45261835      -0.37596352
C       10.97278700       0.40109600       0.24495000      -1.33986107      -0.43164064      -5.04359847
C        8.47875700       0.65080400      -0.30958700      -0.61695152      -0.37722946       0.26685874
H        5.83365600       0.86257900       1.17657100       0.57236202      -0.91005353      -0.09497855
H        4.42484500       1.21254300       0.10410300       7.40369678      -0.03139724       0.35321207
H        4.53679600      -0.53426600       0.54082900      11.33136594       2.29822298      -1.19420553
H        6.06067500       1.23997500      -1.33389300       1.43260910      -0.88848611      -0.66333240
H        5.65789300      -0.39940300      -1.58163200      -1.69781327      -3.31169852      -3.15242069
H        7.36071200      -2.33512900      -0.56750500      -1.41642591      -0.84933351      -0.57101934
H        9.89539900      -2.26067800      -0.08222400      -2.41668399       1.83637697      -0.31910777
H       10.82723400       1.34170300       0.63899100       0.35458789       3.23917326       1.57665000
H       11.44174900      -0.28899600       0.81721300       1.92886556      -2.87055191       3.45941423
H       11.50888600       0.37523500      -0.72653300       0.31266803       0.78660119       0.11277182
H        8.51573300       1.66846200      -0.25540200      -0.61999324       3.96013390       0.06196935
B        8.59078400      -0.74104700       3.19023100       0.88181298       1.45575979       3.07499544
F        8.25417700      -1.61121000       2.16364700      -0.09745535      -0.32360673      -0.42432539
F        7.93615700       0.54418800       3.07127800       0.29126217      -0.73429464      -0.76837476
F       10.01961700      -0.54414500       3.31208900      -0.87616121      -0.16778293      -0.88320417
F        8.20813200      -1.20371600       4.53851600      -0.06757562      -0.16621647      -1.53315689
48
Properties=species:S:1:pos:R:3:forces:R:3 energy=-41279.729569465 pbc="F F F"
C       -2.70884600       0.45212700       0.78710100      -3.93242221       4.74799868       0.72227036
C       -1.88128600       0.34857200      -0.45843300      -2.14840345       1.49688103      -1.76989393
N       -0.60829200      -0.18512300      -0.17619600       5.02117534       6.22652695       1.65716448
C       -0.13931000      -1.37445900       0.05054000       3.53053879      -8.74489237      -0.37114856
C        1.29255100      -1.38965300       0.27425500      -6.44584580       2.49690368      -0.59509359
N        1.60662400      -0.05748900       0.37193400       1.26211643       1.29457292       0.73833166
C        2.99534700       0.43418700       0.72222600      -1.91248141      -3.96762446      -3.33904792
C        0.48650200       0.72161600       0.26104500      -2.23434347      -0.35891934      -1.24895051
H       -2.16660900       1.01544200       1.60567500      -0.22815928      -1.68522306      -0.30715507
H       -3.50321600       1.27709600       0.50469300       1.31556682      -1.65638422       0.47922625
H       -3.37291700      -0.38641300       1.02294800       0.89766116      -0.65263029       0.65077708
H       -1.75975700       1.38966700      -0.90245100       0.11033443      -1.25639952       0.24379882
H       -2.31256800      -0.32507900      -1.20094000      -0.69605057      -0.12210436      -0.56214264
H       -0.62928600      -2.36172700      -0.20137800      -0.18230612       1.36928520       0.41752133
H        1.82086000      -2.23204600       0.46627500       2.87139991      -3.12755109       0.82239585
H        2.97562800       1.41165000       1.03235300      -0.39310991       3.41308560       1.94266228
H        3.28295200      -0.34069400       1.45792900       0.62910924       0.71444874       0.22521295
H        3.54059700       0.46079800      -0.27642700      -1.25339894      -0.89250145       1.29182116
H        0.47384800       1.80665700       0.15374400      -0.04847812       0.21116307      -0.09396792
B        0.64633700      -0.61329700       3.71153800       2.88079894      -2.00352501       1.44101882
F        0.34991600      -1.60550800       2.66858600       0.31081065       0.22382911      -0.11179967
F        0.03077900       0.53909900       3.41144700      -1.15694045       2.24671742      -0.87166036
F        2.13315400      -0.41835500       3.77950500      -2.01355011      -0.38145195      -0.67093402
F        0.23218800      -1.12517800       4.97650800       0.02103786       0.00506627      -0.81356641
C        5.58147200       0.53073600       0.48373500      -3.59520211      -2.85741548       4.90306275
C        6.40416900       0.26854000      -0.66277100       0.86868847       5.41015006      -5.10156433
N        7.72411600      -0.09150900      -0.41588800       8.62871137      -3.95507616       1.60836389
C        8.27223200      -1.52142200      -0.35427300      -5.80565835       6.21557954      -1.51375129
C        9.48414500      -1.42477000       0.00063000       6.40883210      -0.43106598       1.89947113
N        9.94923400      -0.09784900       0.08608500       1.12077672      -1.49157877       0.95073438
C       11.30577600       0.35881400       0.43575300       0.68078915       2.25332204      -5.65656650
C        8.90795000       0.69864200      -0.10963600      -5.75322218      -1.57238107      -0.73450755
H        6.16827600       1.00362500       1.32812100      -0.54712268      -0.91423929      -0.56463270
H        4.78360900       1.20034900       0.19297700       0.86319300       0.92706847       0.06436169
H        4.93505100      -0.49427700       0.79336700       3.45235573       3.34019108      -0.34340207
H        6.55489700       1.29605100      -1.22767800      -0.61125419      -1.64287376       0.92589552
H        6.07797200      -0.35271600      -1.46211200      -1.41047536      -1.54046334      -0.86938547
H        7.62250800      -2.28464500      -0.44382200      -2.82431739      -3.64683110      -0.57519846
H       10.17921200      -2.20260100       0.14256100       1.37382209      -1.50710307       0.35516235
H       11.21710200       1.41520700       0.76611400       0.36209103      -0.44172179       0.30836232
H       11.82920500      -0.29303100       1.05565900       1.00777171      -1.76617613       2.39664293
H       11.86824400       0.32637100      -0.62612100      -0.84232468       0.44719151       2.61755178
H        8.86842500       1.72600700      -0.08413300       0.15241479       3.46793883       0.13426631
B        9.08172500      -0.75357700       3.38380900      -6.04577337       1.38616147       0.25385268
F        8.65949000      -1.53244300       2.29395400       0.21413979      -0.47443616      -0.40304813
F        8.29300200       0.63676200       3.10462000       1.06679487      -1.82092339       0.04496847
F       10.33352900      -0.47187700       3.41466200       5.44640073       1.14423688      -0.44315178
F        8.62616200      -1.22775700       4.61256200      -0.43178102      -0.11717136      -0.15193669
48
Properties=species:S:1:pos:R:3:forces:R:3 energy=-41273.865496829 pbc="F F F"
C       -2.62752900       0.37786800       0.58468200      -6.45728900       0.98765523       8.62689090
C       -1.75610900       0.14221400      -0.50648600      -4.51219312       4.72403194      -6.00401972
N       -0.50301800      -0.19810500      -0.26214100       9.66635662      -1.25611620       1.86929034
C       -0.08352600      -1.46305600      -0.13572400       4.15746517      -3.78430144       0.60874611
C        1.30353400      -1.40793700       0.13335300      -0.01606162     -10.28471887       1.16007598
N        1.72556500      -0.16877200       0.23019900       3.07988099      -0.14656858       1.36314294
C        3.08492800       0.28553000       0.54696700      -6.89535236       3.36600825      -1.66013127
C        0.70871300       0.53032300      -0.09096300      -8.29218469      11.17554766      -1.21498049
H       -2.00023400       0.93230000       1.47935100      -1.80146966      -2.08986506      -2.19484947
H       -3.53211400       1.12546300       0.39741800       2.36265183      -1.56741948      -0.33005209
H       -3.24645700      -0.60254400       0.99301800       2.49338443       2.67859148      -0.85349473
H       -1.66982800       1.12173500      -0.98730300      -0.05934334       0.68555131      -0.68199317
H       -2.09863900      -0.47812700      -1.30385700      -1.21476427      -1.32749996      -0.95607314
H       -0.58618200      -2.37834100      -0.37261600      -1.12693390      -0.62269911       0.00574988
H        2.02560300      -2.31576300       0.38898900      -1.93779672       2.27127647      -0.80520822
H        3.01914200       1.39207200       0.95080600      -0.83217124      -2.58083191      -0.03097787
H        3.55752300      -0.43649600       1.19197100      -3.47399796      -0.03172736       1.32517633
H        3.62470500       0.41045600      -0.41735500      -3.11087711      -1.89579638      -0.75365092
H        0.56428000       1.68169700       0.00216400       0.83291995      -2.25559422      -0.15831489
B        0.73050800      -0.79586300       3.50753800      -1.14729998       1.76829881       3.27386103
F        0.33269900      -1.68593400       2.49607500       0.30417332       0.04328760       0.00894452
F       -0.08192300       0.48790100       3.36796500       1.65569365      -1.87855596      -0.53176644
F        2.12765300      -0.61357600       3.64962000      -0.48499781       0.29338600      -1.47235838
F        0.36876400      -1.21774800       4.88945800      -0.31675447      -0.13075193      -1.82970318
C        5.18226000       0.33825500       0.59980400       3.21595100       3.76480115      -0.45375753
C        6.07679400       0.24765500      -0.65431300      -3.91339133      -6.93622492      -0.62216673
N        7.37494900      -0.25323800      -0.29226800       1.83591750       1.73975328      -0.69394384
C        7.88407500      -1.53055000      -0.27904200      -3.44171106      -3.26574811      -0.02105450
C        9.17848700      -1.50164600       0.09299000      -4.24942815      -1.97419111      -0.35582844
N        9.43992100      -0.23241500       0.11206400       7.26398861       5.20124145       1.90296309
C       10.77390300       0.25515900       0.41179400       3.68335363       1.93864936       1.42302836
C        8.45907600       0.62913900      -0.09257400      -3.72005422      -2.20533517      -0.43787378
H        5.69622900       0.79312400       1.44207500       0.89522689      -0.40674946       0.62223084
H        4.34448000       1.08659700       0.32965900       6.52314765       0.07315620       1.63582133
H        4.58051300      -0.52336200       0.85336000       5.49516532      -0.99908934      -0.44765240
H        6.16758000       1.13584000      -1.13286400       0.61141770       4.24899883      -2.07556121
H        5.61674300      -0.55638100      -1.47516200       1.15822555       2.44007901       2.40248148
H        7.28375600      -2.43551300      -0.44719400      -0.25530610       0.35261983      -0.04118045
H        9.84112500      -2.24870100       0.07256300       3.62914949      -3.71897448       0.37956646
H       10.78156900       1.25367100       0.96905500      -0.49856532      -1.19154517      -0.87878651
H       11.37084000      -0.42296200       1.06841800      -0.87186902      -0.15265778      -0.12768854
H       11.38840900       0.36335900      -0.50824900      -0.37944068       0.13880741      -0.11376426
H        8.50486500       1.66433000      -0.04880500      -0.10386289       2.71170381       0.14309959
B        8.58408100      -0.76175700       3.52317400       1.24049551      -1.43125462      -0.70165958
F        8.16103800      -1.83126200       2.46230100       1.22090109       1.21563032       0.35906583
F        7.93425100       0.38876700       3.15135800      -0.75561243       0.81464199      -0.22160316
F        9.99684900      -0.51005400       3.58771200      -0.90738025      -0.52191750      -0.82974585
F        8.20566200      -1.36432500       4.71379500      -0.57943267       0.01410655       0.38881652
48
Properties=species:S:1:pos:R:3:forces:R:3 energy=-41277.4206575289 pbc="F F F"
C       -2.78731200       0.43995500       0.35751600       2.64907980      -0.98710396       2.28193856
C       -1.83647700       0.29815400      -0.82990800      -2.51879134      -1.51419588      -4.67033157
N       -0.47042400      -0.14683500      -0.54819900      -4.09227913       0.56441745      -1.13119851
C       -0.18416800      -1.45282400      -0.51904300       8.49797820       2.46135718       2.11303935
C        1.19464700      -1.35466400      -0.10159200       1.90919453      -9.93424850       0.65994633
N        1.71632700      -0.12771600      -0.01471300      -7.23603109       1.19278497      -1.87646297
C        2.98638000       0.36408400       0.16944800       2.02950177       0.66865214       5.38940507
C        0.58483700       0.62711300      -0.37888400       2.60681970       3.90468402       1.22723226
H       -2.15893400       0.84258800       1.24606500      -1.32007141      -1.05500677      -1.13075898
H       -3.46615600       1.18330100       0.08074100      -2.04485170       1.73697263      -0.45064933
H       -3.31034400      -0.51528000       0.56649100       0.31796932       0.41792174       0.35136107
H       -1.77920000       1.20089200      -1.42820500       0.37416411       1.38264256       0.21014334
H       -2.25130600      -0.42542000      -1.71975400       0.94304812       1.27547226       2.88132048
H       -0.66081000      -2.31757800      -0.57654900      -3.70457949      -4.49351264      -0.57641541
H        1.99308100      -2.25255300      -0.08908200      -2.41678523       2.12927422       0.25507911
H        2.89807200       1.36764900       0.68153000       0.29871454      -0.85591221      -0.65403506
H        3.51693300      -0.35572600       0.88538500      -1.50362873       0.98183165      -0.86590655
H        3.47803100       0.37561500      -0.73373100       2.05812085       0.47417114      -3.18084453
H        0.56318000       1.69542200      -0.28349800      -0.24469469       1.02205096      -0.03993065
B        0.64683300      -0.78144600       3.26496600      -0.20051351       1.65018871       0.82031883
F        0.31778800      -1.65609100       2.19244400      -0.51772719      -0.84179271      -1.41625251
F       -0.08625100       0.46633800       3.08280800       0.61549800      -0.76044671      -0.36614677
F        2.02964900      -0.61182600       3.17131000       0.55453559       0.51522091      -0.00835745
F        0.27715800      -1.29359100       4.51914100      -0.10453195      -0.41142395      -0.25280333
C        5.62503600       0.57622700       0.66799900      -1.90044252       8.34164412       0.89989420
C        6.52506300       0.49194700      -0.55799900      -8.91491903       3.83441395      -4.09827400
N        7.76052600       0.08926800      -0.25888400       7.49747292       6.06072451       0.59132351
C        8.28198200      -1.05247100      -0.18536300       1.17792573     -16.08436088       1.08915661
C        9.65948800      -1.12431100       0.22231000      -5.27100145      -1.78306186      -1.02479878
N        9.94929700       0.17874100       0.25869700       8.05457433       1.22487260       1.35599516
C       11.45031500       0.70917300       0.51142600      -5.48278965      -9.40867487       3.45206324
C        8.91903300       0.91866700      -0.01557100      -5.51369322       4.38605439      -1.03076458
H        6.19465200       1.16079400       1.49278300      -0.78666149      -2.27795589      -0.64375947
H        4.79542900       1.51222300       0.41221700       3.31387893      -2.99355550       0.55927957
H        4.89619300      -0.15914000       0.89417900       1.31911258      -1.95532070       1.06195921
H        6.46183300       1.54794100      -1.03882300       1.14802004      -1.51703694       0.94967031
H        5.99405400      -0.09076700      -1.37486000       1.02219253      -0.34662227       0.79958829
H        7.63057300      -2.08394200      -0.30917200       1.83489089       3.36369751       0.24673051
H       10.26132800      -1.99222900       0.31205200       1.19497232      -0.93481483       0.28183916
H       11.26100300       1.56848600       0.88730400      -0.70209127       7.97542599       3.90076097
H       11.75754600      -0.10910900       1.20949300       0.74659453       1.12067683      -0.15695529
H       11.84443800       0.71551400      -0.37454300       3.75397548       0.03413778      -6.86319022
H        8.82332500       1.97838300      -0.02814100       0.23112647       1.32242569       0.09610309
B        8.99207200      -0.37513100       3.55049400      -1.43746646      -1.49177014       0.40635717
F        8.51839800      -1.44083000       2.45979900       1.51965002       1.77220464       0.76492637
F        8.24843000       0.78264600       3.33551600       0.12208984       0.34777769      -0.81219247
F       10.37776100      -0.14086200       3.55326900      -0.51173898      -0.44384805      -0.68667056
F        8.53818300      -0.95852800       4.77090700       0.61879570      -0.04608758      -0.72306373
48
Properties=species:S:1:pos:R:3:forces:R:3 energy=-41279.6505067999 pbc="F F F"
C       -2.69580500       0.39362600       0.45917500      -1.67756045       4.09299450       4.90605821
C       -1.85568100       0.25835600      -0.71168100       4.44014318       4.63107011      -1.09713519
N       -0.42291000      -0.14951600      -0.38572400      -4.70601692       7.01380051      -1.21562053
C        0.01962400      -1.32491800      -0.33461900       0.76441715     -15.33922772      -1.18367599
C        1.38354700      -1.47252200      -0.07379400      -2.06330861       1.58959072       0.07236041
N        1.66175200      -0.07424300       0.01932700       8.50575926      -2.55243776       1.52403241
C        3.03420500       0.50832500       0.34578000      -0.33196596      -7.52921083      -4.09777323
C        0.64241300       0.67275300      -0.17982200      -3.66179842       6.86722300      -0.33513303
H       -2.09933700       0.92926400       1.34459600      -1.03212349      -2.16869758      -1.73678729
H       -3.37176100       1.25848200       0.22792300      -0.31735419      -0.96315570      -0.05134370
H       -3.31336200      -0.44925500       0.79777100       0.46728805      -0.26444569       0.01300767
H       -1.67161300       1.30905000      -1.19122600      -0.52836713      -1.77344513       0.86463400
H       -2.19559200      -0.32469600      -1.48580700      -1.28741773      -2.71898777      -2.64649402
H       -0.61572400      -2.29029800      -0.64589600       1.19454717       2.81340902       1.12715678
H        2.01767000      -2.37664700      -0.00285900       0.04800734       0.81746419       0.13786815
H        3.03158200       1.43456700       0.73458900      -0.78343892       4.58747677       2.17952334
H        3.47369800      -0.28192600       0.99793900      -1.46196035       1.14569875       0.21915385
H        3.70912400       0.45174700      -0.59404700      -2.18661285       0.25936977       0.92504370
H        0.71086400       1.79114100      -0.21611500      -0.54058110      -1.04429581       0.11953243
B        0.72328000      -0.69155100       3.31130000       0.84392634       1.07585720       3.15804672
F        0.38183200      -1.64513300       2.35514500       0.07354787      -0.53118563      -1.12644421
F        0.02918700       0.53653300       3.13575400      -0.00165033      -0.04391942      -0.85263589
F        2.15564500      -0.41488000       3.34456000      -1.46314946      -0.56023942      -0.50172074
F        0.28035900      -1.17963000       4.63454900       0.66709161       0.14101138      -1.46791839
C        5.42441200       0.37095300       0.81000800       3.66033268       4.04194494       1.61485684
C        6.30138300       0.19870400      -0.36359300       2.56685029       1.26227893      -6.49014613
N        7.74781800      -0.19552200      -0.17414700      -0.49583804      -2.17657318       0.81936827
C        8.15808800      -1.52057800      -0.05406800       3.13479203      -0.32402165       1.03816039
C        9.53869100      -1.41323300       0.36298100      -3.80295740      -9.58796340      -0.26126242
N        9.95063000      -0.19440500       0.39669600      -1.41686439       5.83518012      -0.84124517
C       11.26064200       0.31156100       0.69196500       1.72742946      -4.91316069      -4.23876889
C        8.84269800       0.57268800       0.11108900      -1.09155440       5.52931064      -0.12292986
H        6.05942600       0.82982900       1.61764100      -0.67204880      -1.00582935       0.03586931
H        4.74266800       1.16779100       0.51086500       0.80141809      -0.09052199       0.73503031
H        4.96178200      -0.53463300       1.02017700      -0.47171119      -2.04277059       1.40247125
H        6.53699100       1.16471800      -0.98714000      -1.45306421      -1.21150300       1.36399657
H        5.90740500      -0.54447700      -1.16650500       0.50125339       0.98077769       1.51092613
H        7.56815600      -2.43264600      -0.13722000      -0.37687440       0.10075756      -0.13820478
H       10.19530700      -2.28713800       0.43496700       0.24297358       0.10040113       0.26505149
H       11.21958700       1.19657900       1.10564900      -0.44820645       6.30757602       3.36023764
H       11.58008000      -0.45736400       1.35307000       1.83988347      -0.74642058       1.30133833
H       11.82904200       0.40251100      -0.27314900       0.09186147      -0.38392005       0.74926095
H        8.78479000       1.70013300       0.13876700       0.32250589      -1.31864079      -0.00394686
B        8.90848500      -0.74917800       3.68281000      -0.19148813      -1.08013894       2.20753274
F        8.61469500      -1.68286700       2.59234900      -0.16976734       0.18003377      -0.22899265
F        8.25593900       0.47688700       3.47732100      -0.21836003      -0.39720675      -0.11343945
F       10.28616100      -0.59739500       3.69882400       0.86800209       0.31951223      -0.25181524
F        8.53935600      -1.39135900       5.00820200       0.09868339       1.07560327      -2.65239196
48
Properties=species:S:1:pos:R:3:forces:R:3 energy=-41277.0366965061 pbc="F F F"
C       -2.92175800       0.43204200       0.50016000      -5.01321475      -1.46500984       4.14871965
C       -2.02434900       0.24226600      -0.62026700      -3.62820347       2.46599699      -7.77001985
N       -0.71823000      -0.10778900      -0.42874900       8.29328016      -4.73595374       2.33360471
C       -0.28598100      -1.49632400      -0.29977500       8.93565844      10.04214818       1.98206749
C        1.14291500      -1.42834300      -0.02917900      -7.46039298      -3.05801430      -1.57174451
N        1.40465400      -0.13766200       0.00682300      17.56792045      -6.82382871       3.90881936
C        2.75215200       0.37956300       0.45878000       0.02175058       2.03143006      -5.60816425
C        0.51746700       0.60904400      -0.07327900     -19.92706651      14.46667569      -3.31476413
H       -2.33216800       0.85329200       1.34652400      -0.47920493      -0.50052012       0.13846248
H       -3.69575200       1.20252800       0.21659200       0.62168620      -0.71620075       0.29096938
H       -3.57044100      -0.56803600       0.82198200       2.42854443       3.00710899      -0.72049052
H       -1.97346400       1.22267200      -1.19655700      -0.03886756      -0.43655279       0.71026663
H       -2.42510100      -0.42168600      -1.49451400       0.34318556       0.55891356       1.90418006
H       -0.78134200      -2.27412400      -0.43607500      -6.31697912      -8.71591030      -1.61221331
H        1.80249100      -2.17812200       0.17838300       2.59115181      -2.64770625       0.68240454
H        2.79498100       1.39461500       0.85725700      -0.91055800       0.09663579       0.91479967
H        3.20971900      -0.36141000       0.99291300       1.27247563      -2.47108371       2.72155492
H        3.31253000       0.47102800      -0.53387400      -0.53965292      -0.26793419       1.11501795
H        0.45967300       1.72501200      -0.18504700       0.61949168      -0.97400103       0.43828930
B        0.47202800      -0.73066200       3.42205000      -0.34990879       1.14721867       0.64437873
F        0.20659100      -1.67208000       2.36509300      -0.22180081       0.17028311      -0.26762200
F       -0.26669200       0.52719600       3.17978200       0.73533530      -1.18731606      -0.47436453
F        1.86228100      -0.50350600       3.42390100       0.13047419       0.27307384      -0.39397220
F        0.07421400      -1.19229000       4.68880700      -0.21694861      -0.27793969      -0.40167191
C        5.61158800       0.13062300       0.65388700      -4.43651957       5.29507797       8.85703537
C        6.49329300       0.03967100      -0.41952900       0.31135068       3.99154801      -8.42612230
N        7.84938000      -0.27596500      -0.18909100       2.93576421      -4.32809706       0.63916188
C        8.27192600      -1.62315300      -0.11798100       5.52376966      -0.71517249       0.35488364
C        9.70963100      -1.71644300       0.08494300      -8.61039117       7.84758554      -0.97396978
N        9.98625900      -0.30145800       0.32532300       6.24811831      -4.77413395       0.69111863
C       11.37448300       0.17302400       0.64813600      -0.75690890      -0.18110735      -3.68443131
C        8.98154900       0.47158900       0.10744400      -5.30563873       5.82521025      -0.82353824
H        6.22231000       0.65679300       1.56414000      -1.68498257      -2.46460464      -1.63824527
H        4.85971600       1.02108800       0.51501200       1.73387477      -1.94085435      -0.27860988
H        4.92995400      -0.73772600       0.93432200       2.04833619       0.64662797      -0.08870894
H        6.57524100       1.06375900      -1.06799400      -0.55470422      -2.29231200       1.87246165
H        6.03892700      -0.64973300      -1.13448500       0.59458850      -0.78317443      -0.82864852
H        7.80046300      -2.54965800      -0.27462700      -2.33858414      -1.22024807      -0.47604833
H       10.24938100      -2.51161300       0.32038900       3.75365987      -4.45233655       1.41239225
H       11.26741600       1.18446800       0.95561800       0.34329131       1.47283571       1.33642696
H       11.77952000      -0.56500200       1.28336900       1.04583407      -0.88644025       2.11360142
H       11.92616700       0.16383900      -0.32879600       0.01282533       0.03214433       0.51929792
H        8.89832600       1.59425200       0.07638900       0.63965465      -1.10068470       0.27223059
B        8.96826300      -0.92756000       3.64072400       3.28872194       1.93425727      -0.59624841
F        8.73358800      -1.83705300       2.62843500      -0.01604036      -0.68924184      -1.17537982
F        8.38614800       0.31586000       3.42148800      -0.45897321       0.85977803      -0.85852256
F       10.54949400      -0.56967700       3.57606500      -2.76765134      -0.98311256       0.03786159
F        8.59442800      -1.38259800       4.84517000      -0.01389689      -1.07890860       1.96271691
48
Properties=species:S:1:pos:R:3:forces:R:3 energy=-41276.0247905338 pbc="F F F"
C       -2.97698500       0.32518900       0.65491100      -1.68270477       5.07839321      -8.94904377
C       -2.04382800       0.25196900      -0.67083600      -2.26934286       1.65522915      -0.46518294
N       -0.71682200      -0.24239700      -0.48253000       2.07348208       2.47586541       1.51507244
C       -0.36398700      -1.57557600      -0.38842800       8.44608918       6.70234281       2.14311704
C        0.99877200      -1.40054700       0.02503000       2.23354496      -9.59904494       0.96170617
N        1.51279500      -0.14796700       0.17217800      -9.63768295       0.80263646      -1.54342209
C        2.74063300       0.35210200       0.47585200       4.67686115      -4.34975981      -2.45116345
C        0.33605600       0.62403100      -0.07014700       0.35023393      -0.64585474      -0.13296091
H       -2.38395100       0.76239700       1.31227500       3.18386296       2.06358625       5.09760706
H       -3.70664000       1.17104000       0.24397000       1.14851284      -2.12047850       1.64767486
H       -3.51132400      -0.50464600       0.86681600      -1.83470624      -3.93429298       1.26379975
H       -1.89415200       1.27400600      -1.20046000      -0.88147074      -1.56060642       0.99538031
H       -2.39278600      -0.49957200      -1.36288000      -1.47295512      -0.18657993      -1.05064813
H       -0.85137500      -2.41601000      -0.50460000      -3.81097415      -5.36369017      -0.96944865
H        1.73311200      -2.36050800       0.21682900      -2.11727626       2.99198581      -0.57727518
H        2.82799800       1.28253300       0.89295900      -0.86861397       3.45719345       2.20288976
H        3.21619800      -0.47018900       1.14601500      -1.11988778       1.94909405      -0.83883860
H        3.33821600       0.45051400      -0.55341000      -2.24700018      -0.78684967       1.95009325
H        0.42315200       1.70114800      -0.04105900      -0.78899095       0.71322369      -0.23451230
B        0.44957400      -0.78056000       3.45891300       0.60244358       1.50384583       2.71308495
F        0.09598600      -1.66323100       2.42659000      -0.12015990      -0.09902665      -0.38219418
F       -0.19970000       0.53920900       3.29868100       0.34746607      -1.81480378      -0.10615944
F        1.86890700      -0.51538000       3.44851600      -1.14180769      -0.51564738      -0.23647444
F        0.07677200      -1.35316300       4.82131900       0.49939033       1.01223359      -2.86121173
C        5.25983800       0.33360700       0.43634400      -5.93644832       0.15046836       0.86516115
C        6.01578700       0.08227100      -0.77075600       5.81470883       8.94303910      -1.17404453
N        7.47852100      -0.21885200      -0.58043000      -6.19456670       2.44802592      -0.86136373
C        7.88677300      -1.40952500      -0.39889500       0.88592278     -15.35716433      -0.30725137
C        9.25004700      -1.51340200      -0.15664200      -3.33923998       0.84437977       1.11255303
N        9.52482900      -0.18029000       0.01115800       4.95315774      -0.68671281      -0.32612984
C       10.88991900       0.26817800       0.21737700       4.72151143       0.28187211       2.27898618
C        8.49964200       0.57407300      -0.36684300       1.73884600       7.99797250       1.05084137
H        5.85726200       0.83157300       1.19476000       0.40823823      -0.70475975       1.09983876
H        4.34802100       1.08021300       0.18107500       5.18323721      -1.02018300       0.63734006
H        4.53146900      -0.57520500       0.61274100       4.03528713       1.46400443       0.98295348
H        6.25150400       1.15174600      -1.29436400      -1.29332880      -2.09990602       1.21819894
H        5.73432900      -0.40586700      -1.58943700      -2.48372236      -4.08493167      -4.01662558
H        7.34705000      -2.49431100      -0.51886100       0.51644409       3.90823464       0.14170916
H        9.88668700      -2.33523200       0.00318600       1.28173472      -1.36451278       0.35043466
H       10.85703600       1.30916200       0.76206800       0.38332466      -2.04282792      -1.29695514
H       11.45013600      -0.54286500       0.93693400      -1.86574903       2.40617129      -1.58005608
H       11.56026600       0.24497600      -0.74720300      -1.67351156       0.55154675       1.45438571
H        8.60003400       1.68512700      -0.22441500      -0.84003399      -1.05513416      -0.45773273
B        8.74792800      -0.77931000       3.33341600      -5.07792619       0.35256650      -0.32175110
F        8.45634800      -1.73168100       2.19001800       0.36331260       0.63942338       0.89338840
F        7.97503300       0.45965500       3.03571200       0.37483102      -1.34182005      -0.11152828
F       10.01905600      -0.44319600       3.33187300       3.67409341       0.24141146       0.13567920
F        8.22201100      -1.30203500       4.57069300       0.79979720       0.09335713      -1.48132357
48
Properties=species:S:1:pos:R:3:forces:R:3 energy=-41279.4795923819 pbc="F F F"
C       -2.79973000       0.50107900       0.26349600      -1.37349317      -0.84218732       4.66178209
C       -1.91095300       0.34601100      -0.85738300      -5.02500335       1.37240539      -7.85008854
N       -0.63373500      -0.00634900      -0.62574500      10.24666503      -4.94568140       2.52851852
C       -0.11579000      -1.38412400      -0.46632400       4.64989614       7.23427945       0.57475073
C        1.28127100      -1.26154500      -0.30530200      -1.68860388      -8.04940273       0.82545885
N        1.65017200       0.00899600      -0.20403000      -0.71173848       2.25195698       0.55358719
C        2.94491200       0.50140100       0.21040300       0.33655576      -2.49616993      -3.70757701
C        0.53420000       0.76788600      -0.28159300      -4.19674207       6.21029026      -1.22070408
H       -2.13472200       0.83245300       1.09879300      -0.91435559       0.17972766      -0.00210415
H       -3.55874900       1.22435400       0.03148900      -0.75400293       0.78101079       0.05760623
H       -3.28976700      -0.43023200       0.59591100       0.12004606       0.05057633      -0.09703304
H       -1.85708900       1.33383200      -1.33334200       0.11579373       0.62794450      -0.26939269
H       -2.34364500      -0.29264200      -1.76550100       0.81691979       0.87365848       2.23010872
H       -0.60121000      -2.20800000      -0.68015700      -3.78025675      -5.41266564      -1.24026556
H        1.93091700      -2.19575900      -0.02922500      -0.95021895       2.32876587      -0.81685514
H        2.89640800       1.46944500       0.59646100      -0.73441216       2.19482142       1.38857405
H        3.38388400      -0.24676100       0.86326900      -0.81863145       0.01226355       0.65455501
H        3.53317900       0.52036200      -0.76045500      -0.67358821      -0.06212633       1.05494824
H        0.51269200       1.96503400      -0.41606100       0.25489223      -3.34606392       0.47525861
B        0.69542800      -0.55241700       3.16526300      -0.68958726      -0.21902522       3.15540052
F        0.40970200      -1.48929100       2.18581800      -0.32018247      -1.00624791      -1.03313577
F       -0.06752800       0.60877000       2.95892700      -0.00514778       0.37901054      -0.35831310
F        2.06763000      -0.30670400       3.23194600      -0.02787519       0.08178570      -0.03526718
F        0.19048100      -1.12468500       4.52955700       1.01781587       0.85236530      -2.44331470
C        5.34264000       0.76631200       0.53417500      -1.99248937       2.15997746       2.64892177
C        6.14612200       0.52409400      -0.72126300       2.56376562       4.23931341       2.30559653
N        7.55559900       0.14898100      -0.36505100      -4.36338481      -0.88994137      -1.00899429
C        7.80840800      -1.18753800      -0.21300500       7.90637788      -0.05455124       0.47016534
C        9.27658400      -1.08889200      -0.03539000      -1.12273263      -3.93669470       1.62034162
N        9.77147800       0.18415400       0.15444400      -3.67783193       1.16432303      -1.43683147
C       11.15324200       0.76159900       0.43098000      -0.74042658      -6.81547552       1.79150846
C        8.58650200       0.93964900      -0.06606900       3.38484159       5.01291243       0.89972299
H        5.88954100       1.15864500       1.45173300       0.33935763      -0.49184809      -1.43900503
H        4.53459900       1.62954100       0.29502600       3.27361042      -2.41526872       0.95007000
H        4.82788800      -0.15543500       0.89094800       1.41546256       0.82666871      -0.17527883
H        6.24329800       1.52734200      -1.12051800       0.19258617       0.67363806      -1.11294084
H        5.82373700      -0.11113800      -1.47255100      -1.40273736      -2.34941856      -1.94572110
H        7.32848800      -2.10688700      -0.49570400      -1.21509099      -0.24526023      -0.25733000
H        9.99844000      -1.86641400       0.17468600       0.14495649      -1.06323623      -0.14560289
H       10.89041300       1.67271300       0.87661300       0.56465885       2.41520603       1.43250039
H       11.60854300      -0.15174900       1.09464900      -0.77874284       3.30869550      -1.00664317
H       11.67671000       0.74590300      -0.49424000       1.11050648       0.77890630      -1.66321697
H        8.63019000       2.07264700      -0.03507500      -0.60091560      -1.45089753      -0.15705473
B        8.68273300      -0.37430700       3.40293000       1.87165409      -1.61233879       2.51821338
F        8.40548300      -1.32752600       2.37015600      -0.08244978      -0.28083697      -0.77027012
F        8.02076300       0.79110600       3.17952100      -0.68650715       1.60623735      -0.80567288
F       10.12124900      -0.22936000       3.50272900      -0.96783957       0.22540646      -0.65751553
F        8.26937500      -0.92770500       4.68813500      -0.01915893       0.14746736      -1.15883513
48
Properties=species:S:1:pos:R:3:forces:R:3 energy=-41277.3059572609 pbc="F F F"
C       -2.93329100       0.34624600       0.77644300       2.29140971       4.29514708      -2.28769330
C       -1.93864900       0.19026600      -0.48323800      -0.98225355       0.80934138      -0.29401684
N       -0.54930700      -0.32735400      -0.29832300      -6.03841883       5.38323544      -0.04820281
C       -0.17113500      -1.54155000      -0.07460000      -1.01141256     -11.07482974      -1.50878428
C        1.15621900      -1.58428200       0.09958900      -0.52966064       2.92753719       0.92032961
N        1.42422000      -0.20098400       0.25936800      17.86107073      -7.44721367       3.73432963
C        2.87789200       0.35908700       0.63508000      -2.30141446      -8.58001363      -7.14878504
C        0.46980600       0.46855800       0.06814500     -11.08572878      15.89567608      -2.52742368
H       -2.21526800       0.81324300       1.55629300      -1.81610508      -1.30244185      -0.26377974
H       -3.65577000       1.23436600       0.37136200       1.37921577      -2.93361239       1.56617911
H       -3.36175500      -0.63830200       0.92513200      -0.67025338      -0.20087842       0.98438627
H       -1.78249100       1.17635100      -0.97266100      -0.19568842      -0.20601118       0.10896199
H       -2.35168100      -0.49903200      -1.21119400      -0.68133438      -0.39880405      -0.72376127
H       -0.75317000      -2.50520100      -0.31864000       0.36861507       2.01983856       0.56819811
H        1.88268700      -2.28352500       0.22585000       2.59544858      -2.91149770       0.61934080
H        2.82937800       1.27253100       0.99532500      -0.70208152       5.93230148       3.15714356
H        3.29710900      -0.49094500       1.20659800      -1.16127531       1.02121898       0.77112126
H        3.49215600       0.38322600      -0.40085100      -3.30809566      -0.39518915       2.24653439
H        0.46702000       1.68251200       0.01406200      -0.27207986      -3.66531210       0.26803287
B        0.52802700      -0.84585500       3.56868500       1.12239630       2.73841360       3.35439712
F        0.19305200      -1.70899400       2.56630200      -0.29859519      -1.18736221      -1.19407254
F       -0.19529600       0.44285600       3.35095500       0.98833256      -1.56477107      -0.07407163
F        2.01816600      -0.55544100       3.54275400      -2.77099957      -0.61980706      -0.15268837
F        0.12592100      -1.34246600       4.92749300       0.89506614       0.74922786      -2.69490021
C        5.19584700       0.42762000       0.61208400       8.50908454      -0.19399298       0.17964334
C        6.18157000       0.27631100      -0.66976200      -0.43703830       1.58661849       3.56924859
N        7.53443200      -0.24659600      -0.45538700       0.13735349       5.59117859       1.07670498
C        7.99997600      -1.49312600      -0.28694200      -6.64889751      -4.92422227      -2.19983875
C        9.23714300      -1.49612400       0.03033400       8.30680821       0.51900106       3.13144042
N        9.65971300      -0.10844900       0.16745000       1.33745588      -1.41228734       0.50748717
C       11.04964500       0.37900400       0.53007800      -1.33717063       2.42163355      -8.62621311
C        8.55943300       0.63447600      -0.03004800      -1.27938032       1.85501514      -0.53962546
H        5.95467900       0.78861600       1.36763700      -1.31087956      -0.51835656       0.22502634
H        4.60486500       1.22126200       0.30513300      -0.88848744       2.01260168       0.20429491
H        4.72438700      -0.51119400       0.86209200       1.20670117      -0.06404153       0.17296041
H        6.26356000       1.24919800      -1.13469200       0.19082584       0.67461601      -0.59997918
H        5.73705500      -0.40524800      -1.25763800      -2.31886576      -3.17640000      -3.78142625
H        7.30430100      -2.33803300      -0.44045100       0.46168011       0.17191433       0.00760982
H       10.01848500      -2.23904200       0.21833100      -0.40178686      -0.39572019      -0.12191428
H       11.05885800       1.37316900       0.94623700      -0.27706729       0.93260120       0.44624421
H       11.38317700      -0.31807300       1.13781700       2.85099985      -4.49394329       4.46127367
H       11.64195900       0.34370700      -0.55906300      -1.28774880       0.32658461       3.53160187
H        8.62840700       1.73659400      -0.05492000      -0.68024502      -0.28965058      -0.15209873
B        8.77408200      -0.82517400       3.52515200      -2.42049442       1.11461416      -2.56805668
F        8.38612800      -1.66535500       2.33229600       0.61787166       0.02389869       0.89402848
F        8.04369900       0.38282500       3.27040700      -0.85616453       0.79841270      -0.57724158
F       10.06097300      -0.49019100       3.48551200       3.64792470       0.01885073      -0.48417394
F        8.38200500      -1.29094000       4.71738300      -0.82062635      -1.83811276       1.86274726
48
Properties=species:S:1:pos:R:3:forces:R:3 energy=-41276.3024226156 pbc="F F F"
C       -2.79955400       0.54503500       0.59583000      -2.57046018       5.63138751      -3.86584354
C       -1.92988200       0.59084100      -0.68397900      -2.83693619      -7.77979595       0.24692157
N       -0.59026600       0.14705700      -0.27296400      -3.18880537      -5.45162996      -2.06900368
C       -0.20750600      -1.20998500      -0.25842900       3.98997451      -1.35747576       0.88851550
C        1.19502900      -1.23786700       0.04019700      -8.99208459       4.56614127      -0.99432419
N        1.49075500       0.10210100       0.17296100       9.51431982      -4.98956849       2.46398591
C        2.89669800       0.50901400       0.50625300      -6.45529025       7.85905552      -8.58376130
C        0.50550500       0.82361500      -0.09507600      -3.44261814       6.98455501      -0.26078302
H       -2.30911600       1.03112600       1.36200100       2.04756295       0.39461497       3.07107196
H       -3.52715300       1.38657600       0.33301700       0.08052311      -1.19388683       0.43761530
H       -3.41717800      -0.25691400       0.84624800      -0.54002664      -2.65137386       0.43359234
H       -1.80570300       1.44727800      -1.21161100       0.02788575       4.49160753      -1.79709814
H       -2.42367200      -0.23575500      -1.46016700       1.91257108       2.39007118       2.04342744
H       -0.71187300      -2.15482900      -0.27807500      -1.72688313      -0.30290376      -0.39293049
H        1.77719500      -2.00849500       0.12947700       4.77416999      -5.54681975       0.91682567
H        2.84987900       1.59331100       0.77900200      -0.27454290      -0.82765106       1.11544859
H        3.38670000      -0.07975800       1.10202900       2.00617063      -4.28085249       5.04519346
H        3.47552400       0.67863900      -0.52008600      -3.76927302      -1.95666525       1.77201448
H        0.46652800       1.84635200      -0.03138800       0.25010540       3.63385069       0.18458411
B        0.58866400      -0.56485500       3.48842800      -0.28269018       2.76534355       0.58721144
F        0.23099600      -1.45889500       2.44180300       0.64874305       0.15972633      -0.34575213
F       -0.17390600       0.77858800       3.17374000       1.16051173      -2.52394403       0.37690701
F        1.97691000      -0.17402400       3.55347500      -1.23850453      -0.72130799      -0.76478181
F        0.20287500      -1.10634100       4.73126300      -0.14135758       0.41134765      -0.67059759
C        5.20283200       0.40850300       0.23817500       0.98543638       2.04250614       1.68852497
C        6.08029100       0.23437500      -1.01659200      -3.13528930       2.24009869      -1.03411221
N        7.40718700      -0.12352600      -0.71647200       2.96687080      -4.85544109       0.55334362
C        7.83597200      -1.48857000      -0.56848200       2.26938698       2.63354558       0.24149366
C        9.17964500      -1.35546300      -0.24552900      -1.21084971      -9.55472355       0.12081315
N        9.52321400      -0.09749300      -0.20379400      12.13439601      -1.60569156       2.56822438
C       10.89736500       0.37905800       0.11671800       2.27490654       1.62000523      -1.00376528
C        8.55006800       0.59479100      -0.42751500     -12.35305567      12.01066955      -2.60933554
H        5.75124500       0.82771600       1.12833000       0.45517847      -1.35139222      -0.51448376
H        4.46101100       1.27764900       0.09886800       3.78351850      -1.19224216      -0.04375640
H        4.57634700      -0.49219000       0.47898600       2.89520900       0.52101979      -0.38806093
H        6.12991000       1.21611500      -1.50136400       0.04191671       0.49217238      -0.36221963
H        5.61097700      -0.44277500      -1.77407100       0.49093765      -0.10163772       0.51488412
H        7.32786900      -2.40382800      -0.57184800      -1.78626393      -1.56708472      -0.40034518
H        9.85965800      -2.24147600      -0.19441300      -0.12793907       1.08986648       0.30127621
H       10.97799900       1.41581600       0.59459600      -0.88207624      -1.46436544      -0.30819975
H       11.32566400      -0.39076900       0.75310800       0.32563091      -0.26159976       0.78524089
H       11.55379700       0.44145300      -0.82263700      -1.14546803      -0.26148757       0.82938480
H        8.39190300       1.68456900      -0.34457000       0.84008356      -0.23356181      -0.04023032
B        8.67311300      -0.68516200       3.08697600      -7.05133136      -1.46884576       2.21586213
F        8.29340300      -1.60809700       2.01305000       0.36254576       0.24966673       0.02238571
F        7.91076300       0.51351500       2.91306500       0.39715072      -0.42834276      -0.31019899
F        9.93558300      -0.51285600       3.16522100       5.98362489       0.93710965      -0.23927470
F        8.20873700      -1.31388700       4.42005500       0.50463731       0.81355022      -2.44428669
48
Properties=species:S:1:pos:R:3:forces:R:3 energy=-41273.6714239773 pbc="F F F"
C       -2.72509100       0.50843300       0.43411600      -3.07371915      -0.39101683      -1.06102844
C       -1.81824200       0.24928800      -0.85377200      -3.61678531       5.86455276       1.26086024
N       -0.50140900      -0.06777800      -0.45013300       1.06369250       2.60873460      -0.30404268
C       -0.12576800      -1.31253000      -0.33800500       3.12269935      -8.79282127      -0.61727203
C        1.27516500      -1.34053800      -0.18683000      -2.50547548       1.80133745       0.96173868
N        1.67915400       0.03186700       0.05657900      -0.76552358      -7.35172767      -0.14408312
C        2.93412100       0.49889200       0.37374400       2.68473316      -4.19323503      -3.59390239
C        0.63525400       0.69154600      -0.21847800      -6.64217517       8.47811436      -0.74484962
H       -2.12668400       0.96070300       1.20691700       0.83468696      -0.11806068       0.98396610
H       -3.49780900       1.32292000       0.17929600       0.96792851      -1.45446957       0.10955630
H       -3.30924900      -0.40681100       0.80112300       1.19480731       1.21493478      -0.39042587
H       -1.82435600       1.32008900      -1.25854400       0.51086130      -1.51485271      -0.31675753
H       -2.24059300      -0.40859400      -1.58933700      -0.22694566      -1.15340555      -0.73131907
H       -0.76423600      -2.25447000      -0.57882900       0.98735179       2.13703217       0.61552312
H        1.91488800      -2.11017200       0.02768900       2.21490800      -2.79244075       0.66481096
H        2.95614700       1.44670900       0.80276800      -0.46297835       2.58268862       1.48963132
H        3.46864900      -0.33406400       0.99016000      -2.64713951       2.20728277      -0.31177233
H        3.58475500       0.52249700      -0.70784500      -4.47781081      -0.47131028       2.78430464
H        0.59839200       1.78134400      -0.11892000      -0.25210969       0.10078125      -0.13484178
B        0.71556200      -0.62429100       3.36385100      -4.32667040       0.08223184       1.13410142
F        0.31976300      -1.52311200       2.26684100       0.15069975       0.28214664       0.82187413
F       -0.02517400       0.64525500       3.08942500       1.09122047      -1.55608088       0.31401868
F        2.04927000      -0.45445400       3.31777500       1.67695450       0.24781875       0.26720431
F        0.17660900      -1.14738700       4.72206400       1.41434355       1.02176629      -3.30385055
C        5.26683200       0.37464200       0.22590000      -0.47794334       7.20719025      -0.00222882
C        6.14933600       0.27157300      -0.99248100     -12.80433490       3.93499068      -8.06626318
N        7.32901500      -0.10660000      -0.75429400      15.48153941      -6.76696754       3.30605570
C        7.85182900      -1.47632300      -0.59996800       2.66000166       3.09694719       0.33845644
C        9.24670000      -1.41917100      -0.38076500     -10.69809917       5.55504150      -1.54158427
N        9.47740000      -0.09505500      -0.24720200       7.71008165       0.21859862       1.48800327
C       10.84506100       0.43533800       0.06574600       4.25256850      -5.63667926      -0.94945227
C        8.44803500       0.65510800      -0.39606300      -5.56335348       8.14576664      -1.12288858
H        5.81060800       0.89881600       1.05126500       0.05150209      -1.38749559       0.06092537
H        4.36792300       1.24309000      -0.06020900       6.99296420      -2.08500300       1.30725038
H        4.60078900      -0.42461800       0.44571400       2.62868778      -1.65885258       0.26328424
H        6.19067800       1.32453300      -1.64742500      -0.30235889      -2.79347794       2.05353878
H        5.71948300      -0.53862200      -1.79709800       0.45581518       2.21754196       2.02010267
H        7.33342700      -2.32448500      -0.83869600      -2.44900864      -2.88962429      -0.79233170
H        9.82393700      -2.14441100      -0.27878200       7.07843605      -7.92269361       1.29497082
H       10.94554200       1.40640600       0.46706900      -0.68422447       2.00217905       1.00482257
H       11.36024600      -0.40284400       0.79943000      -1.66515312       2.74769568      -1.65005647
H       11.51369800       0.36435500      -0.90065000      -1.53527247       0.33954467       1.61453031
H        8.46696000       1.84773500      -0.49952400       0.00550423      -3.25416721       0.41216987
B        8.68907700      -0.69296500       3.05541900      -5.38026541      -1.42858998       1.59845025
F        8.24085900      -1.64963400       1.97917500       0.78075319       0.63107182       1.20273491
F        7.91229700       0.48774700       2.76602400       1.00075399      -0.74295879       0.36651421
F       10.00560400      -0.53739400       3.09091700       2.20013088       0.25969373      -0.10976886
F        8.16708300      -1.27995500       4.48919300       1.34810885       1.35366391      -3.87937272
48
Properties=species:S:1:pos:R:3:forces:R:3 energy=-41278.4217079787 pbc="F F F"
C       -2.68912200       0.41876400       0.19701700      -5.11924626       3.35853992       2.56697970
C       -1.88116300       0.32558200      -1.00790100       1.63153998       2.19568349      -1.12256834
N       -0.51422600      -0.10879100      -0.71615700       1.65288189       4.39730958       0.24193474
C       -0.06398900      -1.36339100      -0.60986400      -0.51896348      -3.19036779      -0.36005688
C        1.24386000      -1.31723200      -0.31403300      -0.26519876      -1.42324573       0.94848214
N        1.63977500      -0.05354700      -0.11161500      -3.35614906       3.66724529      -1.63215477
C        2.92550300       0.47413200       0.01526400      -1.75476190      -1.07698183       6.66309681
C        0.58259500       0.78454300      -0.40351700      -3.15009139      -0.10557334      -0.43128290
H       -2.14109900       0.90024800       1.04354000      -0.11499620      -0.92647207      -0.21529245
H       -3.51672600       1.22512500      -0.06039200       1.58352063      -1.74342225       0.63099514
H       -3.29589100      -0.46179900       0.46609900       0.81425721      -0.25839598       0.30596827
H       -1.83291600       1.33942800      -1.45262300       0.44391093      -0.17157789      -0.17475434
H       -2.25854000      -0.31503000      -1.74022500      -1.21984934      -1.88854172      -1.95896392
H       -0.62833100      -2.27047600      -0.74828600      -0.77579763      -0.38991947      -0.24070373
H        1.92199200      -2.06209600      -0.18362700       2.48836042      -3.25781083       0.50505731
H        2.92570700       1.45381400       0.56095900      -0.85536363      -0.62861196      -0.50156834
H        3.38907100      -0.27289600       0.77308700      -2.68745697       1.81807871      -1.35762692
H        3.49143900       0.53270500      -0.82750900       0.60297268      -0.50067918      -4.17373057
H        0.51680100       1.89487100      -0.37740200       0.16718821      -0.77632597       0.06174249
B        0.67826500      -0.58883700       3.14315900       1.33211765      -1.05045080      -1.51378700
F        0.34322800      -1.61961500       2.09367700       0.21351241       0.44216508      -0.46711023
F        0.00129500       0.57283000       2.85722100      -0.36877584       1.06121135      -0.53432311
F        2.10099300      -0.42778800       3.08352900      -0.94173163       0.04973636       0.04387006
F        0.20885600      -1.18518300       4.28072800      -0.14571032      -0.46102796       1.51969811
C        5.16918900       0.45048500       0.38952800       2.54965633       4.33960906      -0.30479601
C        6.01691000       0.34583000      -0.88294100       0.99638974       0.59629527       0.01118641
N        7.39845000      -0.06465300      -0.58978500      -2.07926770      -5.43406259      -0.66248846
C        7.85502800      -1.42950500      -0.47792300       0.74569367       2.56243612       0.56224425
C        9.20495900      -1.32856800      -0.09363900      -4.84957805     -12.63089746      -0.97131961
N        9.51038200      -0.13224900      -0.13338100       5.53815433      14.02126996       1.20534763
C       10.91898700       0.45602500       0.22781500      -2.83587737      -2.53147233      -2.71719262
C        8.40902700       0.73962200      -0.37640500       4.01574002       1.26657859       0.95082495
H        5.80176100       1.06663200       1.17309000      -1.40605799      -2.42615289      -0.81670932
H        4.41847700       1.23527100      -0.02362800       3.60283189      -1.04566217       2.24740723
H        4.55749700      -0.48259300       0.54684300       3.90102957       0.83031419       0.91333200
H        6.21465800       1.32902500      -1.34812400      -0.88722681       0.10957470      -0.26740630
H        5.60787000      -0.37644200      -1.58361000      -0.31821958      -0.31924532      -0.77821780
H        7.24389500      -2.26364300      -0.64072900      -1.42350293      -1.64543395      -0.31142268
H        9.82486900      -2.24766000      -0.14713600       0.38591181       0.83539697       0.67067888
H       10.83936700       1.43042800       0.59684100      -0.28183086       2.13696333       1.71535964
H       11.35103100      -0.33085300       0.78277700       1.18866074      -0.83528842       1.96434694
H       11.39467300       0.48911900      -0.72665900       1.16532889       0.25454130      -1.46900688
H        8.41578800       1.80942400      -0.24644100       0.05546651       0.68330328       0.01081660
B        8.61107200      -0.67762200       3.22457500      -1.32850709       0.79647950       3.14415686
F        8.20660800      -1.56772000       2.18712000       0.72798808      -0.06634792      -0.14372378
F        7.90237900       0.57417900       3.05043900       0.43793329      -1.13924076      -0.04669750
F        9.99267000      -0.38957400       3.30652400      -0.68532641      -0.74705271      -0.43895507
F        8.13566400      -1.30835900       4.60077700       1.12366440       1.24880066      -3.28604700
48
Properties=species:S:1:pos:R:3:forces:R:3 energy=-41277.8418931467 pbc="F F F"
C       -2.63444400       0.13255600       0.33081500      -5.42246912       5.94725914       6.06900815
C       -1.81125400       0.04291000      -0.79167200       2.98875248       0.53938814      -6.83843663
N       -0.42508200      -0.38103400      -0.49558200      -3.92192467       0.33759021      -0.73199688
C       -0.07116700      -1.66615400      -0.44066900       2.35635605      -4.67690136       0.33186609
C        1.30617500      -1.61241100      -0.11509800      -2.92159805      -8.20764245       0.59276886
N        1.68735800      -0.39321700      -0.03367400       1.43103562       8.10205048       1.54080804
C        3.02115700       0.15132000       0.37963500      -1.88506129      -5.85630531      -8.99584167
C        0.57558000       0.43292500      -0.21514100       2.59719397      -0.18075983       0.59661824
H       -2.11469300       0.75118400       1.18247200      -0.64666694      -2.16216300      -1.19380005
H       -3.45788100       0.93050500       0.09591300       1.28231922      -1.49251889      -0.05859314
H       -3.26332700      -0.67510200       0.68175500       0.65381894      -1.25051608       0.37527413
H       -1.67191100       1.02116500      -1.33711100      -0.26817326      -0.38717870       0.72993204
H       -2.10488600      -0.63755500      -1.62120500      -0.52705030      -0.16807269       0.47597160
H       -0.65260800      -2.62678000      -0.53749400       0.09268334       1.58506789      -0.08288995
H        1.96035200      -2.46041400      -0.00481800       0.61712560      -0.56106480       0.10949948
H        3.02561300       1.09579800       0.65397500      -1.06190780       5.82734088       2.95113376
H        3.50056300      -0.59296100       0.95381000      -0.47072191      -0.85407674       1.59849344
H        3.53655000       0.21316200      -0.73659900      -1.50970807      -0.69478556       3.21640413
H        0.58398800       1.46483600      -0.18589700      -0.11182320       2.98316935       0.05092459
B        0.74048300      -0.93207600       3.35694100      -1.22817970      -0.94649436      -0.89838057
F        0.51530100      -1.96604000       2.18705200      -0.02790953       1.07913740       0.76248425
F       -0.02330700       0.23557600       3.00222800       0.81583102      -1.00371331       0.14284663
F        2.10955100      -0.77910700       3.32634200       0.71330078       0.69606012      -0.04112693
F        0.31506900      -1.48336800       4.59559500      -0.00326278       0.28468040      -1.22935393
C        5.40294500       0.38147100       0.50704300      -1.09633839       2.07001593      -3.22746788
C        6.26718000       0.14548500      -0.83634400      -5.41439734       9.82607911       1.75655495
N        7.51961300      -0.17487500      -0.49587800       6.10445420       2.25064175       0.75493712
C        7.99565400      -1.35352100      -0.38833300       3.24817911     -15.31271448      -0.28410587
C        9.40900800      -1.48237000      -0.16254800      -4.49878863       2.38854923      -0.36043666
N        9.76427000      -0.12888900      -0.09960900       0.48664495      -1.31729428       0.88932576
C       11.09082500       0.35758600       0.28881500       3.20464142      -2.85312465      -1.25633361
C        8.63838100       0.60005500      -0.24714300      -0.63658752       8.87978088      -0.13044773
H        5.96222900       0.87975200       1.28568100       0.90966359      -0.42416301       0.84862846
H        4.58848000       1.16285900       0.16563500       3.38050456      -1.46435605       1.20047257
H        4.83205100      -0.52390600       0.73558300       2.45077694       0.15916263       0.77166890
H        6.39139500       1.30571900      -1.20132300      -0.72207862      -3.33172135       0.09118695
H        5.79387600      -0.44135100      -1.55440300      -1.04166663      -1.92798993      -2.01163002
H        7.45448400      -2.39688800      -0.62833700       0.58313989       3.26237079       0.76447045
H       10.06048700      -2.28997900       0.03292100       1.01603389      -1.42603165       0.21318824
H       11.02661800       1.29837400       0.74973200      -0.29290693       2.39856696       0.93006316
H       11.57417600      -0.37882300       1.07674000      -1.09019617       1.34244636      -1.74472925
H       11.66816900       0.41876300      -0.72302000      -0.33239321      -0.05278581       2.08583414
H        8.62300200       1.80639600      -0.26686500       0.01490236      -3.53148753       0.07650929
B        8.73389700      -0.74906000       3.32033500       2.17392531      -0.64819857       2.45891978
F        8.40682600      -1.68060600       2.31570300      -0.08956318      -0.59316632      -0.73250205
F        8.04448500       0.42365500       3.13350000      -0.32079042       1.10337189      -0.47957661
F       10.22643100      -0.53408100       3.26074500      -2.36271447      -0.26498295      -0.01174645
F        8.35253500      -1.29493400       4.65875600       0.78218983       0.51257853      -2.08627559
48
Properties=species:S:1:pos:R:3:forces:R:3 energy=-41274.1815388692 pbc="F F F"
C       -2.88187400       0.44175000       0.63329600       0.93659430       4.46056290      -1.31884685
C       -1.98826400       0.14901800      -0.64738400      -0.65808923      11.52389005       4.80851207
N       -0.65772000      -0.15621700      -0.28782600       1.21132854       3.21541208      -1.04815400
C       -0.21272400      -1.39437100      -0.24841500      -2.69520083      -2.40051580      -0.42294160
C        1.00911700      -1.42931700       0.08630800       8.48025838      -1.80384807       2.49262063
N        1.43663900      -0.07670200       0.21670700       6.96352615      -8.64966083       2.08102803
C        2.83491500       0.23296700       0.41374900      -5.80915884       1.14089488       3.19657056
C        0.50209200       0.62897800      -0.15942600      -9.62938567      11.24128640      -1.50134468
H       -2.25181700       0.87945400       1.46496600      -0.55220317      -0.78793915      -0.76189059
H       -3.65422300       1.23786800       0.33998400       1.18446812      -1.04868632       0.38419684
H       -3.43488500      -0.35905100       0.92269500      -1.86118040      -3.67357005       1.63799599
H       -2.00787000       1.29274200      -1.05508400       0.63967311      -3.30564107       0.12574462
H       -2.37393700      -0.43410200      -1.31863900      -2.97254894      -5.08328985      -5.19134535
H       -0.76549300      -2.20652500      -0.41347800      -3.42939039      -4.08382283      -0.93977098
H        1.75921400      -2.23759300       0.18219100      -0.60730436       0.29202947       0.13347939
H        2.75055100       1.24449600       0.89436300      -0.12155920      -0.65850715       0.26797398
H        3.31382900      -0.40317500       1.24229700      -3.07944972       0.02114780      -0.96448159
H        3.38370500       0.48833400      -0.47799000      -2.97171997      -2.86651968      -1.82214188
H        0.45740000       1.77049000       0.02582900      -0.05709538      -1.96173569      -0.61822301
B        0.51762300      -0.69302500       3.52124200       1.09501461       0.44345945       2.14870953
F        0.16626900      -1.61583500       2.54403500      -0.36199174      -0.77067713      -1.09319196
F       -0.20000400       0.54358500       3.32734000       0.78072454      -1.21145676       0.34832861
F        1.98756100      -0.47319600       3.39876500      -2.26999557      -0.13468602       0.34736309
F        0.14433300      -1.37389900       4.85205000       0.91110452       1.71726110      -2.52143071
C        4.90829700       0.64714500       0.25532200      -0.87739577       2.99630077       4.68282530
C        5.70486200       0.44866600      -0.88846400       6.16178094       4.88437960       1.82410996
N        7.10909000       0.02551100      -0.45197400      -0.51296003       3.78909214      -1.14044884
C        7.58783100      -1.20457300      -0.47414400      -0.25869014      -9.15021566      -0.44140389
C        8.97370500      -1.24830100      -0.31588800      -4.39309621       2.58187019      -0.29683931
N        9.28002900       0.10006700      -0.15584200       4.84861858      -2.45999329       1.34506772
C       10.61805100       0.51931300       0.27411600       2.44237686      -1.16374278      -4.72949610
C        8.24355200       0.85662800      -0.30777800      -5.45187325       1.88139443      -0.18027186
H        5.48285600       1.05641000       1.07182000       0.97302000       0.55917213       0.55686093
H        4.02090400       1.39019000       0.05939400       6.02713492       0.39111892       0.79207090
H        4.38900100      -0.22660900       0.67400500       4.42272514       0.66409476      -0.96749446
H        5.81954300       1.42054100      -1.36678000       0.55723426       0.60939356      -0.56433384
H        5.49082100      -0.17102100      -1.59955600      -2.58880288      -5.49732617      -5.44508743
H        6.96702700      -2.21156500      -0.61517200       1.13685660       2.94218649       0.35560522
H        9.52784800      -2.06646300      -0.07767600       2.73671000      -2.89631656       0.77708854
H       10.67299500       1.53264100       0.51549600      -0.40037691       2.43024880       2.14107483
H       11.11888100      -0.24571900       0.86902000      -0.16908462       0.08838445       1.00679342
H       11.17699800       0.57784300      -0.73018300      -0.10349454      -0.60512359       1.15845061
H        8.13773300       1.89842400      -0.28704700       0.25012962       2.28896998       0.19192990
B        8.28241900      -0.63052600       3.25771400       0.99063336       0.84046037      -0.36849473
F        8.03513500      -1.47058800       2.05563400      -0.26382304      -0.14834192       0.87682817
F        7.64711100       0.60736400       3.00125200      -0.66400864       0.14500621      -0.16056057
F        9.68447200      -0.36402800       3.21719900       0.06113488      -0.42416019       0.08152374
F        7.90763000      -1.12738900       4.52934900      -0.06541134      -0.36015924      -1.25879948
48
Properties=species:S:1:pos:R:3:forces:R:3 energy=-41274.9803650906 pbc="F F F"
C       -2.79536100       0.57139300       0.40136100     -10.03534475       2.68319755      13.58618452
C       -1.95401900       0.38253800      -0.58845700       2.97924363       2.70025544     -12.33110422
N       -0.66119200      -0.05882900      -0.31530400       6.39629194       1.29084817       1.15747421
C       -0.09577800      -1.30233600      -0.32840200       0.55849416      -1.76589099       0.03500470
C        1.22082300      -1.36319200      -0.08666600      -2.78263659       9.18973941      -0.37091155
N        1.56570100       0.12893600       0.09040500       1.64466676      -5.50334929       1.41721000
C        2.92219600       0.60255200       0.52390200      -2.50287239      -6.36755213      -7.45809140
C        0.46751700       0.81517000      -0.02821200      -4.87317999      -0.52415222      -0.40774124
H       -2.30111200       1.08987200       1.29970700      -0.23920350      -1.19390855      -0.96670552
H       -3.57437100       1.36251600       0.21483700       0.42512375      -0.89905545      -0.67448022
H       -3.43033800      -0.29939500       0.86482600       1.82211032       1.27960473      -1.21428182
H       -1.84676200       1.43362100      -1.14269500       0.29474483      -2.18688262       1.02714248
H       -2.39407600      -0.21608100      -1.39501500       0.09185899      -0.75192066      -0.39062973
H       -0.59312200      -2.19425000      -0.45797800      -2.50001022      -2.55252672      -0.57481119
H        1.91160900      -2.02162600       0.12085200       4.56488036      -4.91348808       1.19988580
H        2.86347100       1.56939300       0.81562300      -0.08509979       4.37888223       1.89851032
H        3.36341200      -0.21432700       1.13622900      -1.27402953       1.36668289       0.58726011
H        3.44138300       0.49137000      -0.64598600      -3.35668092       0.45519873       3.79026774
H        0.44168600       1.85057700      -0.10943600      -0.43818868       2.90128991       0.02258763
B        0.54395900      -0.59326200       3.40512500       2.34895642       2.00833262       4.05852162
F        0.24723400      -1.41025200       2.40631700      -0.61770081      -2.50109716      -2.56637360
F       -0.09710100       0.65926700       3.18369400      -0.08408875      -0.06658415       0.30591441
F        2.03551200      -0.28486700       3.41345700      -2.07438140      -0.57656587      -0.15803503
F        0.20889900      -1.20479900       4.73004300       0.48182831       1.23661585      -2.23835988
C        5.19048700       0.29819900       0.32149700       1.04938539       4.71843774      -1.32488441
C        5.99098200       0.16154200      -0.95833200       1.95789648       1.10436657      -1.27646938
N        7.38120900      -0.26939700      -0.65474700       0.69420101       5.41586933      -0.27903923
C        7.84105900      -1.47312000      -0.58621000       2.66340027      -9.81983856       0.06745224
C        9.19305400      -1.55884500      -0.24460900      -8.77349755       8.63499143      -0.80051510
N        9.50391500      -0.17094500      -0.06657700       4.45707178      -6.66925432       0.24657896
C       10.87332200       0.15931600       0.10185400       1.35549961       7.22903642       4.22291052
C        8.52023000       0.56674600      -0.39617000      -7.05795472       4.52859753      -1.31001143
H        5.78770800       0.78579600       1.12220900       0.16381288      -1.27140868       0.21397242
H        4.42875400       1.17381200      -0.00862300       4.63805143      -2.33734314       1.74009766
H        4.62635700      -0.60549100       0.49567500       1.29968738      -0.52083513       0.63082704
H        6.20734000       1.16400600      -1.42031000      -0.83910165      -0.53669207      -0.02840657
H        5.62296900      -0.55931100      -1.72473300      -0.30043637       0.33790700       0.30685249
H        7.31077300      -2.42460200      -0.80994800      -0.47734868       0.92350458       0.09745508
H        9.82467600      -2.25038600      -0.15238400       6.47870793      -7.26099126       1.09701021
H       10.75588200       1.36006900       0.60182200       1.12686903      -4.38432396      -1.30174586
H       11.34271500      -0.51429700       0.85125000       0.03978199       0.20322034      -0.37144282
H       11.40679100       0.36398200      -0.81234700       0.69541972      -0.61110676      -1.23155125
H        8.47916700       1.64659100      -0.39975500      -0.00964015       0.61166540       0.10404353
B        8.61796100      -0.87831100       3.07343300      -0.45990243       2.55138216       5.10598839
F        8.26225900      -1.72173500       2.10793100      -0.76264889      -2.18553223      -2.48183423
F        7.88475600       0.38937200       2.95542900       0.47785509      -1.17244911      -0.21148615
F        9.97912400      -0.61535100       3.15394300       0.71359454       0.07149630      -0.63949102
F        8.27038300      -1.46688700       4.45514700       0.12617296       0.77280810      -2.31118381
48
Properties=species:S:1:pos:R:3:forces:R:3 energy=-41275.8199006147 pbc="F F F"
C       -3.09981400       0.46783700       0.48450100       5.63412634       1.85009294      -2.36993557
C       -2.03768300       0.28227300      -0.77215800      -5.79023808      -1.75375621       0.05310601
N       -0.69460100      -0.06590600      -0.42134400      -7.45335044      -5.15569199      -1.90529189
C       -0.39564900      -1.41828400      -0.38204200       4.15929599       1.51454902       1.02952874
C        0.91457400      -1.38663200       0.01282400       0.57493014       0.85533156       0.17317730
N        1.42677900      -0.03815200       0.01411700      -5.85962052      -2.06659392       0.00070575
C        2.72853200       0.40166200       0.27054600      -0.50503990      -2.45269404      -0.27134489
C        0.26321400       0.71606300      -0.15791800       6.30630328       5.02113665       1.48446887
H       -2.45951400       0.92362900       1.23905500      -0.03444720      -0.51998414       1.09177252
H       -3.74746000       1.23439400       0.20523500      -2.12977793       1.55645763      -0.99192307
H       -3.56200300      -0.40597100       0.72329900      -1.74986335      -3.40302967       1.35810881
H       -1.99402300       1.22518800      -1.17054100       0.22810417       3.73241257      -1.70638149
H       -2.50696000      -0.38067900      -1.62361200       1.38175219       0.80009507       1.95274448
H       -0.94939500      -2.27681400      -0.52794900      -2.37830110      -1.91803368      -0.55695214
H        1.59251600      -2.17393000       0.01319700       1.87551565      -2.20039243       0.40300314
H        2.76923900       1.37468100       0.76001800      -0.95950698       0.24976095       0.57707119
H        3.25793000      -0.42694500       0.92957000      -4.26201418       2.10601049      -0.92494181
H        3.27683200       0.46158400      -0.72392100      -1.88548302      -0.64884151       0.64448910
H        0.23629800       1.79415700      -0.23907500      -0.06509083       0.63695194       0.07123716
B        0.39883500      -0.81422900       3.30266000       2.54220112       3.95013438       3.85891711
F        0.08392500      -1.59312200       2.22743800      -0.00170183      -1.86026579      -1.13621166
F       -0.19999500       0.48482700       3.06398100      -0.09267542      -0.51544832      -0.14626665
F        1.91103700      -0.46676600       3.32401700      -2.68555087      -1.30133402      -0.38927803
F        0.01436200      -1.19882800       4.68554800       0.58653416      -0.13626447      -3.01191139
C        4.90341900       0.49832700       0.42529700       5.10310172       4.57997655       1.73584823
C        5.77761100       0.33613200      -0.76615600       2.12308839       2.81473174      -3.65353062
N        7.23511300      -0.01506300      -0.48644400      -4.57545029      -1.28969207      -1.42768981
C        7.57984300      -1.32054600      -0.42523800       3.92038686      -4.89999276       0.56484256
C        8.97359900      -1.33990500      -0.14125800      -4.66181772       1.40345273       0.17354308
N        9.28605200       0.03512100       0.00518900      18.49025690     -12.50082481       4.81063743
C       10.75332300       0.43150800       0.33393700      -3.16534950       4.12331792      -3.91494190
C        8.37014900       0.67446900      -0.31338700     -14.73426631      17.35573364      -3.56365258
H        5.59348300       0.90848000       1.25040600      -1.30128680      -0.88588560      -0.61826215
H        4.14536600       1.29938200       0.11602900       4.14820764      -0.79630141       1.55645786
H        4.36397700      -0.37939800       0.66545200       3.09288022      -0.93789926       0.54444886
H        5.87887600       1.32407300      -1.34187600      -0.23511030      -0.87818104       0.92983585
H        5.38753300      -0.33579800      -1.55514100       0.28605202      -0.64850223       0.32851806
H        7.01728400      -2.26511300      -0.56704200      -0.48238874       0.99479649      -0.01412177
H        9.66187000      -2.07945500       0.02520600       2.31931789      -2.62943368       0.60523699
H       10.66204500       1.44168300       0.77609500       0.37224880      -0.31725054       0.53431669
H       11.21638400      -0.28204700       0.89858000       1.48130163      -2.87995582       2.70203953
H       11.24846900       0.55645900      -0.66041800       0.00385678      -0.24002747       0.38431454
H        8.30859400       1.79305600      -0.27516400       0.19978957      -0.80307985      -0.12754719
B        8.36461700      -0.73462100       3.33265900       1.18401502       3.38059229      -0.75570690
F        8.08775800      -1.66053900       2.21006300       0.61056102       1.12836141       1.14308513
F        7.60464700       0.59048000       3.08788800       1.36574793      -2.57811408      -0.33092818
F        9.84323800      -0.35503100       3.38442000      -2.90707936      -1.05313794      -0.72596263
F        7.96851200      -1.17223000       4.57717700      -0.09616246      -0.75370522      -0.16644807
48
Properties=species:S:1:pos:R:3:forces:R:3 energy=-41276.5548693096 pbc="F F F"
C       -2.59439000       0.13221100       0.61821500      -4.29897237       7.96774688       4.18265417
C       -1.73740900       0.11122300      -0.54878300      -0.76480939      -2.87619669      -4.69429125
N       -0.38430000      -0.35760700      -0.29474200       1.38504857       6.95174035       0.03050358
C        0.03525400      -1.57317600      -0.20557100       6.37958010      -4.05121486       1.41423262
C        1.43747200      -1.61497400       0.09831000      -7.52665972       3.38736203      -1.23418486
N        1.83972600      -0.34912500       0.20430400      -6.31721287       6.10312103      -1.55302655
C        3.08337200       0.21349200       0.45644800       2.29704378      -4.48073337       2.99308052
C        0.68337300       0.59423900      -0.09940600       1.72366610     -15.73376223       0.19228490
H       -2.08799100       0.65956100       1.52012400      -0.40329225      -1.33135072      -1.38546664
H       -3.40712000       1.05953000       0.32572900       2.22575303      -3.25975330       0.96503895
H       -3.23291200      -0.63880800       1.02109200       0.21277006      -1.52142656      -0.48562167
H       -1.57518000       1.07363300      -1.05574400      -0.56280142       0.34065819       0.06401410
H       -2.19157900      -0.65571900      -1.30187600       0.82188829       1.54313500       0.77079546
H       -0.46980700      -2.43697700      -0.37543600      -2.78383546      -3.17654690      -0.65383070
H        2.06031400      -2.33892800       0.25031200       4.62100582      -6.09507242       1.11276952
H        3.05943900       1.14754800       0.94582700      -0.65286272       1.75745949       1.18488117
H        3.63338100      -0.59252200       1.20150100      -2.73479776       2.58554267      -1.74678031
H        3.68368200       0.30716100      -0.42342700      -0.63776313      -0.49222163      -1.46985673
H        0.66542500       1.52155200      -0.04525100      -0.29194330      10.94029371       0.77417211
B        0.84335100      -0.89906000       3.49225800      -0.40291427       2.86089410       2.32133905
F        0.37368400      -1.70258000       2.49763600      -0.22665861      -1.51916770      -1.82143810
F        0.13607900       0.41687000       3.31732200       0.44328876      -0.96183450      -0.08776122
F        2.20240000      -0.63609900       3.52059100       0.98899393      -0.01451814      -1.10691611
F        0.53430400      -1.38925800       4.77939800      -0.71703692      -0.33800358       0.00733881
C        5.45820900       0.42318000       0.52658900      -2.99175981       3.72305660      -3.02945065
C        6.28454500       0.33724500      -0.68254900       0.72143503      -1.34467425      -6.77987877
N        7.68801700      -0.09743700      -0.43887000      -3.13822534      -1.45143520      -0.69475393
C        8.07839400      -1.40932100      -0.38787900       7.80610409       2.68139782       1.11514767
C        9.50882200      -1.36766200      -0.10150400      -8.17377468       3.82053604      -1.02417195
N        9.79875500      -0.00893900       0.07736400       4.51305122      -4.39196105       0.33113230
C       11.18999700       0.41758700       0.37861800      -0.78192908       3.77969918      -4.64401398
C        8.70901300       0.68763200      -0.13943300       0.03473245       4.82908275       0.39400090
H        6.06354300       0.87399900       1.23923900       1.32563053       0.64811596       3.03922761
H        4.67077200       1.34555500       0.09835200       3.72353539      -3.00155343       2.63471671
H        4.87756600      -0.49741700       0.71472400       2.53460184       0.85274322       0.54379490
H        6.38633500       1.29369100      -1.26655100      -0.00789061      -0.14971634       0.88468738
H        5.89969700      -0.39522700      -1.57771300       0.69684513       1.53400876       2.79054188
H        7.56052200      -2.25320000      -0.46152300      -3.61901889      -4.34956671      -0.66804732
H       10.04095600      -2.16303400       0.11279700       4.28885327      -4.92093197       1.38982052
H       11.07690100       1.42739600       0.78258100       0.66386103       0.25504950       0.46792081
H       11.72087800      -0.23798100       0.93460700       1.52594123      -3.14381536       3.78626879
H       11.84114100       0.42232900      -0.56973100      -1.35578470       0.55652914       0.66744811
H        8.79801300       1.75105200      -0.14565000      -0.71303343       1.42279334      -0.06593663
B        8.84285800      -0.64580700       3.38675500      -0.06060563      -0.48272858       1.48647526
F        8.57390800      -1.58800600       2.29621800      -0.45232865       0.26278902       0.09909142
F        8.20172800       0.59594000       3.17333800      -0.22532017      -0.31632793      -0.45238909
F       10.23072700      -0.48173700       3.36184400       0.54659572       0.17165286       0.08997964
F        8.42086500      -1.17930700       4.69964900       0.37467352       0.41824644      -2.12390443
48
Properties=species:S:1:pos:R:3:forces:R:3 energy=-41275.0141242939 pbc="F F F"
C       -2.76930700       0.66304000       0.66608500      -1.17855895       1.22220983       5.63029710
C       -1.92808100       0.42176600      -0.47250300      -1.00074201       5.87087638      -6.48210656
N       -0.57158200       0.23382400      -0.26201100       0.43120231     -10.48956157       0.76917977
C       -0.18284400      -1.17197100      -0.05723700       3.03322432      -0.01111426      -0.39626607
C        1.23688200      -1.15061500       0.07731100      -6.01109988      -7.45081718      -0.37981362
N        1.58950300       0.06537000       0.18053400       3.63564714       6.12128305       1.04439957
C        2.96663900       0.50133000       0.51554300      -5.30980171       4.32334419       4.11379508
C        0.51314000       0.84205700       0.06360000       2.21345715      13.20712618       0.76978067
H       -2.16608200       1.15079200       1.55133700      -1.04587050      -1.68653407      -1.61009717
H       -3.47881300       1.44216000       0.44100600      -1.01633245       0.36870813      -0.46950479
H       -3.31196600      -0.23852300       0.95828400      -0.04838360      -0.14312619       0.69707187
H       -1.81325700       1.45684600      -0.98707800      -1.11120878      -1.17672889       0.20782977
H       -2.30655500      -0.21861500      -1.30600000       0.15141245      -0.34395980       0.81400392
H       -0.74018300      -2.05889300      -0.26804800      -1.28280681      -0.52865447      -0.29313897
H        1.87366200      -1.95454400       0.28267800       1.41652591      -1.82297181       0.23732138
H        2.85694500       1.66100700       0.99324200       0.20478360      -3.84140459      -1.44899299
H        3.40713400      -0.14913900       1.30665600      -2.08582188       0.36217817      -0.46005213
H        3.51625600       0.59114200      -0.35986800      -0.06535319      -0.77990424      -3.03788321
H        0.52404800       2.07824000       0.06133300       0.39298571      -4.04877309       0.10939716
B        0.53529200      -0.47264700       3.70415400       4.15597145      -0.08073644      -3.26125237
F        0.39169700      -1.31722000       2.48532600      -0.75395095      -0.53203857       0.30199485
F       -0.00865900       0.71382800       3.37966500      -1.97445685       2.21887152      -0.07563002
F        1.99911800      -0.27868900       3.58812000      -0.00478197      -0.11284258       0.17939734
F        0.29564300      -0.99557300       4.89639300      -1.41728270      -1.35482975       1.97745727
C        5.22600200       0.30322800       0.67679600       4.97389464       8.06936516      -0.40374567
C        6.21967100       0.21618600      -0.42029100      -4.45161264      -3.13738712      -7.06265382
N        7.48960600      -0.39405100      -0.26502000       4.83802882      10.34313557       2.22461852
C        8.01088600      -1.55546200      -0.14020300       3.20933907      -5.92117871       0.99073778
C        9.37556400      -1.45389100       0.20174700      -2.45729114     -11.41737778      -0.69886669
N        9.66848800      -0.22547600       0.31768000       9.83166095       3.72729096       1.76022565
C       11.10057200       0.29667300       0.64899000      -2.28091527      -0.50418404      -2.27351994
C        8.65824300       0.48721600       0.11255900     -10.14358951       9.12535261      -2.42988181
H        5.86368900       0.64237600       1.43834500       0.62913312       0.67532947       2.89382895
H        4.47302000       1.13089600       0.46255800       4.35153779      -0.70527252       1.01841016
H        4.73145600      -0.48598100       0.94572500      -1.75445214      -6.20595115       1.41688119
H        6.26177300       1.17502500      -1.01393700       0.61231330      -0.66870754       0.67230710
H        5.75934200      -0.60337500      -1.17135600       0.58023331       2.28065707       0.99445362
H        7.34603600      -2.34418700      -0.24256700      -1.08437131      -2.99985756      -0.29365004
H       10.02798400      -2.33555800       0.34020000       0.01981374       0.70654724       0.08952938
H       10.95784800       1.27798000       1.06703300       0.28659589       0.84357541       0.90529243
H       11.44814600      -0.49537200       1.25005800       1.17559237      -1.03389058       2.19487232
H       11.69001700       0.30869000      -0.27876400      -0.02420893       0.24541111      -0.39614059
H        8.59829500       1.65888700       0.02635700       0.22036990      -2.80340614       0.29525915
B        8.68446900      -0.81791000       3.71726000       2.11665107       1.17358062      -2.79018701
F        8.38377900      -1.67750400       2.59938700      -0.51548326      -0.59481699      -0.65144894
F        8.08688300       0.40905400       3.51899700      -1.07790829       1.35473215      -0.45425205
F       10.09827500      -0.62271100       3.59246600       0.92986255       0.10439795      -0.24221173
F        8.42704600      -1.33255800       4.89688200      -1.28075612      -1.96331611       3.30351784
48
Properties=species:S:1:pos:R:3:forces:R:3 energy=-41267.4540179068 pbc="F F F"
C       -2.65431800       0.59826400       0.75919400       3.79489623      -0.09996996       1.06801771
C       -1.63598700       0.50170300      -0.43215900      -5.57432053      -4.33716638      -2.11027634
N       -0.34284700      -0.02470300      -0.06869700      -2.52378475      -2.12264861      -0.69406415
C        0.06231200      -1.34051000       0.00880500       4.87860492      -0.90153634       0.26568197
C        1.46320700      -1.39294800       0.19786800      -4.58817597       7.01662498      -0.31923257
N        1.90906400       0.02766300       0.32682500     -10.61855715      -3.58172317      -0.45707291
C        3.16289200       0.50264900       0.70808800     -11.97787483      -4.54103868      -2.21419424
C        0.68271000       0.73008900       0.14707600       7.92870789       7.31820697       2.32203729
H       -1.97573000       1.02321100       1.54189100      -0.95383862      -0.78923941       0.55459984
H       -3.30737400       1.38535100       0.53982200      -2.19300807       1.33994124      -0.64272860
H       -3.11996300      -0.36188400       1.02604900       0.05727394       0.27612812       0.09958379
H       -1.58961200       1.44922600      -0.92446200       0.68437768       1.30360307      -0.77391697
H       -2.13572100      -0.32155200      -1.17319700       1.62526310       2.42626407       1.40285220
H       -0.48771600      -2.19505400      -0.15618800      -2.49360598      -2.29698553      -0.51680322
H        2.17187400      -2.03527800       0.45014200       3.64813963      -4.74102964       1.17735709
H        3.09118100       1.45328500       1.10595700      -0.57075124       3.04409763       1.65439979
H        3.61564400      -0.31959800       1.31709100      -5.03950994       2.61165844       2.31204439
H        3.70215100       0.50602200      -0.31320300      -8.94669981      -2.76274621      -0.28714911
H        0.81784300       1.88232200       0.27462800      -1.31645242      -2.26568603      -0.48436417
B        0.86619200      -0.61650300       3.69677900      -1.32104879       2.75899329       1.54501031
F        0.53634800      -1.49849000       2.72979800      -0.35674013      -1.63072270      -3.06567822
F        0.11409000       0.68139600       3.46848600       0.63591436      -1.13967022      -0.34665119
F        2.19483400      -0.31941500       3.77496300       1.79824078       0.41767714      -0.55959348
F        0.41848000      -1.14754000       4.88593300      -0.65584244      -0.29770375       1.66066975
C        4.96189800       0.45469100       0.38509600      15.87889659      -0.92368877       3.97247188
C        5.85206200       0.25223000      -0.80491500       1.96031179       5.36153711      -1.96371467
N        7.23514100      -0.13662800      -0.54044300       0.52116234      -2.41845933       0.56263385
C        7.62585100      -1.44421600      -0.35988100       4.84321196      -4.70856187       0.44571134
C        9.08665500      -1.46692200      -0.05829100      -8.23042032       4.48062911      -1.15002900
N        9.37526600      -0.04408100      -0.05605100      12.72680050     -10.54155763       3.92967433
C       10.81830800       0.32620500       0.40766600      -3.55519500       7.35433102      -9.71629364
C        8.36066000       0.57837800      -0.25698100     -10.09903605      12.63175295      -2.00363977
H        5.64879200       0.90429300       1.23553300      -0.72894347      -1.66100856      -1.21901448
H        4.25747400       1.22573200       0.15777400       8.03493266       3.39961599       1.03348108
H        4.38887800      -0.54069700       0.71525100       9.03383343       1.65201599      -3.21757064
H        6.05523400       1.32408200      -1.24383100      -0.93941258      -1.98373931       0.15352436
H        5.50360500      -0.40245700      -1.58087400      -0.75718298      -0.83842333      -0.97412566
H        7.10377000      -2.40348400      -0.60906500      -0.34049701       1.26510182       0.23089972
H        9.72457400      -2.24013800       0.07043500       3.08287524      -3.10622748       0.63683124
H       10.74567000       1.36763600       0.77327900       0.34906634      -0.41946790       0.82687865
H       11.21654000      -0.38499500       0.93857100       2.79530912      -5.38100741       4.65394363
H       11.32483400       0.43007700      -0.69519500      -0.58169048      -0.46289318       3.21529333
H        8.34198300       1.69822200      -0.23958500      -0.17812394      -0.78776204      -0.06697969
B        8.38189200      -0.68166900       3.38556000       4.31288469      -2.82225789       0.72333025
F        8.13086700      -1.56460000       2.25220300      -0.13577570      -0.68047214      -0.45061170
F        7.88841600       0.48411000       3.10656100      -3.12873995       4.88288244      -1.12722615
F        9.83397100      -0.48229200       3.38906500      -0.06980864      -0.63867322      -0.22531113
F        8.03611400      -1.20121500       4.61986100      -0.73756371      -0.63623056       0.12744711
48
Properties=species:S:1:pos:R:3:forces:R:3 energy=-41276.2448202253 pbc="F F F"
C       -2.56882600       0.29257000       0.46772100     -15.64205361       0.34566064       8.51579411
C       -1.85466100       0.14163300      -0.61930800       5.85009940      -1.46625338     -12.05047910
N       -0.44083000      -0.23630900      -0.38244600      -0.71267329      -2.20524365      -0.49408896
C       -0.03911100      -1.59226800      -0.30718100       0.61954696       0.11176006       0.23928569
C        1.25160900      -1.58963400       0.08020300       3.06629188       1.32302330       0.59756850
N        1.72165200      -0.18310400       0.13475600      -3.06295015      -4.46660334       0.62185606
C        3.06347300       0.17442000       0.48231100      -4.22495093       5.22805022      -3.84020326
C        0.61269800       0.56398900      -0.07971500       0.09319218       1.32292493       0.19769162
H       -2.16687200       0.68021300       1.33561900       2.06558946       0.96664749       2.63652701
H       -3.44376500       1.12577300       0.21494000       2.44129420      -2.35629882       0.75251922
H       -3.32275400      -0.63275600       0.81778300       3.00293205       2.44825990      -1.05991172
H       -1.80089500       1.07563400      -1.19174600       0.37886528       0.55481463      -0.29293444
H       -2.23369900      -0.59547300      -1.42117300       0.32390761       0.70890551       1.41907517
H       -0.56289300      -2.52391200      -0.42479700      -1.40407031      -0.16285649      -0.37938261
H        2.03188200      -2.36687300       0.13952200      -0.47655051      -0.04627942       0.20179927
H        3.04928700       1.24364800       0.93282600      -0.38883696      -1.97987305      -0.13642139
H        3.51287000      -0.51932700       1.13101600      -1.33799424      -1.36530924       1.75909483
H        3.59511900       0.35115500      -0.55697500      -2.88535385      -1.73165550       1.90333642
H        0.61420000       1.62978100      -0.04589900      -0.28918190       1.40180795      -0.01127826
B        0.65962700      -0.79065400       3.48774500       0.40127587       0.23943641       1.95395064
F        0.31089700      -1.69934300       2.50552300      -0.82919374      -1.36952391      -2.31613824
F        0.05966800       0.47029000       3.23022300      -0.15353194      -0.30595929       0.21458111
F        2.04353300      -0.68966000       3.49219100       1.20868279       0.60655218      -0.18292117
F        0.28495900      -1.43232500       4.73691900      -0.39595410       0.89858183      -0.53660045
C        5.26768800       0.27822000       0.33888000       0.02046894       3.56690324       4.40103894
C        6.19506700       0.13556000      -0.78240000      -8.68212680       4.14546970      -8.08449755
N        7.44651700      -0.19773600      -0.47458300       7.31520837      -0.62334533       0.36289573
C        7.92025500      -1.45789400      -0.51302400       1.97466168      -7.15791230       0.90354428
C        9.29250000      -1.52773600      -0.13927600      -4.56752750       2.55803553      -0.50924872
N        9.63945700      -0.16256700      -0.02960800      -2.71212359      -2.13161502      -0.53818674
C       10.92176500       0.24010400       0.30352800       6.04817036      -1.44157231      -2.45403362
C        8.55245700       0.63521600      -0.28019900      -0.87779177       1.93679286       0.62330223
H        5.75154600       0.84853500       1.17345700       0.75359143      -1.69370072       0.20905527
H        4.48441200       1.10401000       0.18630600       4.19572751      -0.98900812      -0.51543162
H        4.62179500      -0.56835200       0.66177400       4.97384959       0.19450681      -0.55276589
H        6.15192200       1.20837700      -1.24930500       0.94537801      -1.71286772       0.60794358
H        5.67678800      -0.47157300      -1.73210100       1.97098476       0.97646993       2.96820937
H        7.32155600      -2.42936100      -0.63464600       0.35073293       2.02172314       0.03437347
H        9.97404000      -2.31715800      -0.01991500       1.36028433      -1.60244786       0.22495152
H       10.91157600       1.20823100       0.64175600      -0.04658037       3.23036238       2.75957808
H       11.47879900      -0.56256900       0.88947000      -0.80431613       1.41288505      -0.15967880
H       11.49843400       0.43240600      -0.67037400      -0.23914668      -0.91645937       0.80477973
H        8.52360400       1.74319600      -0.29737900       0.05987377      -0.56476635       0.14949328
B        8.70066400      -0.86433300       3.33884500      -2.03520164       1.50094782      -0.78255873
F        8.29575900      -1.76606700       2.20371500       0.97586152       0.77964238       0.85535346
F        7.96276600       0.41931700       3.07440600       0.44545079      -1.31417454      -0.11427540
F       10.03678200      -0.52132100       3.32230200       0.67758680      -0.59290552      -0.30481530
F        8.25083500      -1.36355200       4.56838800       0.23013260      -0.27497346      -0.60618198
48
Properties=species:S:1:pos:R:3:forces:R:3 energy=-41278.7501053799 pbc="F F F"
C       -2.63621700       0.78656400       0.56826000      -7.46804330      -0.92920226       3.41206543
C       -1.79997900       0.56452200      -0.53612300       1.67865386       2.38221656      -7.09039444
N       -0.43531300       0.18239100      -0.21769200      -0.52025463      -1.59212291      -0.79729402
C        0.02899000      -1.11093200      -0.23156000       1.25007202      -2.31593130       0.30972556
C        1.39622300      -1.04590100       0.02481800      -0.90988242      -7.06935348       0.65833693
N        1.71352900       0.22195800       0.24987000       3.31639115       1.82637242       0.54361726
C        3.11210200       0.72229900       0.54655700      -3.62898601      -4.00096150      -1.00839517
C        0.64901400       0.94456000      -0.03364100      -1.30348090       3.05264122       0.59534563
H       -2.07460400       1.19900000       1.35508100       1.06705388       0.44865619       2.18161403
H       -3.44992000       1.53969900       0.34740600       0.95703967      -0.58276108      -0.12825344
H       -3.24407500      -0.12657500       0.85983800       1.20812770       0.84381492       0.35244822
H       -1.77222900       1.57494800      -1.03431100       0.93637620      -0.46933739       0.06485983
H       -2.11166900      -0.05171800      -1.41065800      -0.42475093      -0.57138096       0.89656459
H       -0.58547300      -2.00037200      -0.32745700      -0.40551493      -0.15158709      -0.15745625
H        2.04957500      -1.94619200       0.24959100      -0.57959297       1.40647398      -0.39519919
H        3.05409400       1.74586100       0.91545400      -0.43960812       0.01718962       0.99059766
H        3.51612900      -0.19175700       1.15409600      -1.65270917       2.66642041      -0.14558401
H        3.59484100       0.69475100      -0.44313900      -0.96856536      -0.12355993      -0.18403619
H        0.65130700       1.96551600       0.00780700      -0.21449807       3.76758238       0.17088412
B        0.70643500      -0.37159900       3.47847400       0.48001629      -0.61054439       2.46060627
F        0.42020900      -1.32829400       2.48711200      -0.36577525      -0.55335615      -0.79800995
F        0.05777600       0.83180200       3.22727900      -0.57529445       0.55762269      -0.40076236
F        2.09471300      -0.18102800       3.55716100       0.65789822       0.21789626      -0.49916604
F        0.32611100      -0.90971600       4.80423400      -0.16203711       0.42875821      -1.44549535
C        5.35516100       0.89146500       0.56648200       3.04010427       6.30607329      -1.29031032
C        6.30232000       0.83775600      -0.66546800      -3.87127141      -4.59809479      -0.65811615
N        7.63358200       0.35079300      -0.33675600      -1.49473125      -1.61918876      -0.74507698
C        8.02466200      -1.02630200      -0.28712100       5.06685983       6.84735679       0.59965601
C        9.34963500      -1.01691900       0.00182800       0.59291062       2.73732603       0.99834854
N        9.74069200       0.39687900       0.17746400       1.51517285      -4.57183248      -0.64366090
C       11.08526400       0.84909900       0.36086400       1.98137707       2.47680113       9.16357833
C        8.68495100       1.15220900      -0.04285000      -1.59615937       2.88902092      -0.05139730
H        5.95265400       1.40733400       1.31005600       0.42766520      -1.01093002       1.61874758
H        4.57143300       1.72637800       0.38151200       3.29749149      -1.50789042       0.10051176
H        4.85679800       0.00101600       0.74050700       1.32662690      -1.98602097       1.14546780
H        6.27191100       1.75283400      -1.15393900       0.82148057       2.91631958      -1.41613358
H        5.81252200       0.06646000      -1.39500800       1.25892449       1.33636143       0.96820192
H        7.53722600      -1.85236600      -0.33843600      -5.24644199      -6.42339358      -0.80896879
H       10.08687000      -1.75209900       0.23604000       0.70957558      -1.16988023       0.11635898
H       11.04801600       1.99930700       0.91098300       0.22263040      -3.98770666      -2.20152883
H       11.61628900       0.12369600       1.21550700      -1.79509149       2.16881269      -2.27561547
H       11.72454800       0.81948400      -0.44476500       1.78920948       0.13170420      -3.52108208
H        8.70092000       2.23784100      -0.13045100      -0.16673240       0.33465898       0.10149228
B        8.84302200      -0.27444500       3.48405600       1.60916874       3.28806718       3.45035399
F        8.46836400      -1.06387900       2.50755100      -0.82958609      -3.23141442      -3.79449810
F        8.11772700       1.00176600       3.22190100       0.72274040      -0.45189536       0.37844531
F       10.28773400      -0.01427300       3.47298900      -1.48690370      -0.11762625      -0.25771105
F        8.46931300      -0.81388500       4.75278800       0.17153167       0.60596755      -0.55360363
48
Properties=species:S:1:pos:R:3:forces:R:3 energy=-41278.227866751 pbc="F F F"
C       -2.96836700       0.50056400       0.75753700       0.24552784       6.83978639       1.85117164
C       -2.05890800       0.39128000      -0.48891800      -3.68677656       0.30373378       2.54482769
N       -0.81209100      -0.09722000      -0.09727600       5.15299848       8.43487026       0.40540014
C       -0.23070700      -1.23836400      -0.14264200      -1.22420860     -10.64739348       0.24457329
C        1.09077900      -1.24141700       0.17808300      -1.53126723      -1.15351421       0.12105781
N        1.39429200       0.06481700       0.38866700      -1.33785048       0.39923578      -0.74903127
C        2.68140800       0.53499900       0.56063700       5.75544557       0.29959670       2.91778217
C        0.31493200       0.83151000       0.13055900      -3.61092809      -6.01634545       0.25776679
H       -2.42023500       1.04156000       1.64831500      -0.43217443      -2.14235553      -1.58052933
H       -3.68427900       1.37696400       0.56576100       0.24269004      -1.75354464      -0.30583205
H       -3.51482300      -0.34133900       1.06847800      -0.71992820      -2.00992178       0.50104731
H       -2.02242500       1.32809700      -0.97006500       0.63966911       1.99687740      -0.98392435
H       -2.52988200      -0.28239300      -1.11498700      -1.24107948      -2.31957589      -2.46900286
H       -0.89568000      -2.16667100      -0.13215400       1.13034474       1.11505159      -0.53267627
H        1.69130300      -2.07424600       0.38438400       1.55075427      -1.50653649       0.38557783
H        2.77945000       1.53272900       1.04643200      -0.82067127      -0.23319082      -0.26891570
H        3.22172800      -0.17780100       1.32632500      -1.47695852       1.34817918      -1.52236029
H        3.32371300       0.56938300      -0.35303400      -1.63424898      -0.47284829       0.00855746
H        0.35990500       1.80514300       0.11596700      -0.34186013       7.00900032      -0.08600592
B        0.48690300      -0.58168700       3.67756000      -1.19697250      -0.34318618      -0.19222887
F        0.12129700      -1.52078200       2.62280300      -0.16021863      -0.24243626      -0.47157356
F       -0.23535300       0.60455000       3.45632700      -0.07622536       0.58545129      -0.44105566
F        1.83322500      -0.43475600       3.66177000       2.21248426       0.70757551      -0.55216478
F        0.11519900      -1.12538200       4.90223200      -0.71981954      -0.66300303       0.85325093
C        5.28817900       0.65575500       0.42893900       4.01774126       2.07153802      -0.63849788
C        6.23852300       0.56518000      -0.81873500      -0.00046857      -3.15924835       2.28716633
N        7.62260400       0.01869400      -0.49301700      -5.38783971      12.56676285      -1.19577596
C        7.99473200      -1.14969100      -0.50659700       4.94807236     -14.14816220       1.09352953
C        9.37395800      -1.15699500      -0.17039900      -1.01697229      -4.67743570       0.10966766
N        9.77505900       0.11036300      -0.08935300       3.14061198       2.24520484       0.55655298
C       11.17251700       0.67055100       0.21142300      -5.59350696      -7.84517478       9.09471484
C        8.69987500       0.85111900      -0.34764000      -1.53948826       6.85297877       0.57124060
H        6.00178200       1.02552900       1.22787400      -1.28847137      -0.36273483      -0.11788542
H        4.58296400       1.43631100       0.11413400       0.53406590       0.03499946       0.86138382
H        4.82297200      -0.28229100       0.68184400       0.31092096      -0.55093217       0.13879005
H        6.34048700       1.43955400      -1.34883900       0.77188093       3.76264914      -1.11537241
H        5.89866300      -0.09699400      -1.56920600      -1.13733280      -1.81847886      -1.26022229
H        7.39227300      -2.07867300      -0.56162200      -0.01927448       0.74763584      -0.16499903
H       10.08454100      -1.95109200      -0.00332200       0.14625908      -0.82833026      -0.01951906
H       11.05510300       1.58416000       0.59301400      -0.52178318       5.02938386       2.62985051
H       11.57601500      -0.13726300       0.94522000      -0.13878959       2.01577865      -1.13249747
H       11.57983000       0.68798100      -0.61652100       6.10835363       0.14224551     -10.58872060
H        8.68367300       1.98539300      -0.25534700      -0.28037096      -1.69531068      -0.19386134
B        8.88011400      -0.53706600       3.28489900      -4.74074057       1.47328064       1.58617532
F        8.40437100      -1.43148600       2.20164900       1.33915262       1.11279861       1.06736384
F        8.14455300       0.84460900       3.05867100       0.68870940      -2.84672814       0.14812742
F       10.17538900      -0.11719700       3.26836900       1.25481862      -1.06054480      -0.13536797
F        8.35361200      -1.11972400       4.62017100       1.67793790       1.39639983      -3.52790586
48
Properties=species:S:1:pos:R:3:forces:R:3 energy=-41278.1045559425 pbc="F F F"
C       -2.68013900       0.87816800       0.30869200       3.73548965      -0.45759938      -0.64789221
C       -1.71703100       0.67548700      -0.95612000      -4.45856394      -7.20655880       1.80811481
N       -0.39287800       0.20570800      -0.71404300       2.49453905       6.68212473       1.38419265
C        0.09161900      -0.98986500      -0.58246900      -1.36367108      -9.60296836      -0.43037015
C        1.41956900      -1.04447100      -0.22779700      -0.19005643      -3.67749583       0.67446244
N        1.76050600       0.22291200      -0.08580900       0.95452525       8.54542518      -0.03676971
C        3.12610300       0.86261000       0.17026900      -0.48412622      -7.88569931      -1.98730885
C        0.66220200       1.09300100      -0.33837900       0.28942452      -2.91786835       0.03306640
H       -1.97651100       1.31366500       1.06737900      -1.17970974      -0.46311271       0.13927442
H       -3.37371000       1.58171700      -0.05240400      -1.62089015       1.60168334      -0.21000930
H       -3.18221500      -0.03075400       0.57631100      -0.23680484      -0.93792093       0.77202282
H       -1.69543100       1.56796500      -1.33861900       0.76858134       6.80517540      -3.54697362
H       -2.13786400      -0.06979400      -1.70028600      -0.06581699       0.94683780       0.64549049
H       -0.58502200      -1.88864800      -0.70533100       0.84396935       1.04483112       0.00579875
H        2.15367800      -1.84435600      -0.03152100      -0.60297379      -0.07494361      -0.20498664
H        3.10861100       1.80064000       0.64235300      -0.66776013       2.21588610       0.87842785
H        3.62725000       0.01423200       0.82418500      -3.26619105       2.67296198      -0.91890346
H        3.77953200       0.75378400      -0.80054600      -2.65246684       0.87587851       1.19034462
H        0.71754800       2.15199900      -0.37378400      -0.16480564       1.48641363      -0.11879994
B        0.83128700      -0.35092500       3.11412700       0.31592862      -0.16848577       2.41475277
F        0.48188500      -1.31576300       2.03589600       0.16794714       1.18812562       0.99789766
F        0.12108400       0.92235500       2.98108600       0.96975474      -2.06226731      -0.36432569
F        2.25963100      -0.19506300       3.14018300      -1.32052471       0.16918936      -0.73801709
F        0.51789800      -0.93993600       4.49939500       0.00135075       0.89851978      -3.10465832
C        5.44139200       0.45659700       0.56704700       2.95825793       1.08842175       4.03908520
C        6.38648000       0.29792000      -0.61091600      -6.24979436       1.20773992      -2.79332027
N        7.65707400      -0.10988100      -0.35269900       2.56660962       3.85936267       0.71077011
C        8.14339400      -1.27027100      -0.15055000       0.04929589     -15.59666908      -0.56027970
C        9.51156500      -1.38762500      -0.01180500      -2.23854667       2.57298938       0.82397006
N        9.79926000      -0.02092700       0.15144300       4.24653638      -3.38106461       0.27864789
C       11.16782200       0.40107200       0.44419500       1.84403736       1.24334401       3.99198875
C        8.72065700       0.67698000      -0.08515200       0.82484565       7.97885207       0.33107429
H        6.02358300       0.86292500       1.45548000      -0.33245564      -0.78276593      -0.74513566
H        4.69453500       1.22921000       0.37132400       2.74289251       0.06247685       0.28190418
H        4.89735100      -0.46363600       0.91731000       1.75649937       0.35638514      -0.49241507
H        6.47877000       1.28625300      -1.08848400      -0.20353859       0.08798422      -0.40709513
H        5.90105200      -0.43260800      -1.31878600       0.59307889       0.60191745       0.03619339
H        7.58458000      -2.28918800      -0.34229200       0.45334394       2.72084448       0.51443734
H       10.16110700      -2.16426900       0.27310100       1.13392043      -1.55540737       0.33989790
H       11.21482600       1.40078900       1.00509100      -0.40767513      -1.12995200      -1.15243469
H       11.68099800      -0.32369600       1.17927600      -1.29887005       0.63790405      -0.86796749
H       11.76960000       0.41019300      -0.43635000       0.78302534       0.30301095      -1.63955169
H        8.93255700       1.76098700      -0.01941700      -1.52283085      -0.06351349      -0.36527661
B        8.86672800      -0.71903400       3.59979100       2.19877758      -0.23096596      -1.66058259
F        8.52124700      -1.63659000       2.37258400       0.72291303       1.03171517       1.88818435
F        8.14984800       0.46039000       3.31568500       0.58376011      -0.36621955       0.27920817
F       10.44474600      -0.46891800       3.45424000      -4.04650098      -0.69737724       0.33000188
F        8.53771100      -1.27607300       4.86316400       0.57979264       0.35373446      -1.79319217
48
Properties=species:S:1:pos:R:3:forces:R:3 energy=-41277.2663804577 pbc="F F F"
C       -2.79523300       0.28372800       0.47095300      -4.79885722       4.34371391       1.28596673
C       -1.99196300       0.16358200      -0.69814100       3.60771053       0.38198151      -5.96603270
N       -0.53629500      -0.19904600      -0.44292400      -3.57795040      -0.77178247      -1.05324981
C       -0.08052200      -1.46065300      -0.34336000      -2.38830078      -8.86510235      -1.06534756
C        1.26099500      -1.45111600      -0.08444900      -1.22624413      -5.35354589       0.47535252
N        1.53714900      -0.16934200       0.07062600       8.60974282       0.85905292       1.14336547
C        2.99627900       0.25724500       0.30436700      -5.20268502      -0.42600878       4.27187467
C        0.54396000       0.57065200      -0.28247300      -2.69142070       7.62935899      -0.02086302
H       -2.18164100       0.70407100       1.23449100       0.75333734       0.30234259       1.64995542
H       -3.48730400       1.22409000       0.13308500       0.95424374      -2.97863066       1.59141877
H       -3.37304600      -0.55288500       0.83524100      -0.30891933      -0.69523800       0.04286935
H       -1.84031300       1.16447000      -1.16268700      -0.29600599      -0.03161897       0.16258551
H       -2.33962800      -0.45875600      -1.57870900       0.09910538      -0.03842461       1.16914962
H       -0.70725900      -2.50022600      -0.55671500       1.58534162       3.76348052       0.77058743
H        1.93972700      -2.30687700       0.06278100      -0.08179024       0.50492291       0.07147784
H        2.87079800       1.28950300       0.80318800       0.54776732      -1.71609595      -0.35303049
H        3.45769000      -0.59186500       0.97597500      -2.26432898       2.21044841      -0.96521443
H        3.50417400       0.33674500      -0.59885700      -0.05860164      -0.38550262      -2.97547942
H        0.54263900       1.65919100      -0.19691800      -0.13407387       0.15040786      -0.06400665
B        0.61573400      -0.74248800       3.33835900       0.51169680       0.27387872       3.09768965
F        0.29072500      -1.70901100       2.38236800      -0.38348759      -0.32335869      -1.16043363
F       -0.08831700       0.48845800       3.19808500       0.41851707      -0.57849879      -0.67111633
F        2.04054300      -0.56641200       3.37351600      -0.85125114       0.21066842      -0.49613225
F        0.21889000      -1.30230700       4.66213900       0.32327046       0.45608788      -1.44453948
C        5.38244400       0.35171900       0.35491200       0.19146434       5.25078823       2.13275578
C        6.36051600       0.23755600      -0.82266400      -6.23464029      -2.98764737      -0.56354288
N        7.67607900      -0.15381300      -0.45857900      -6.04773782      -2.18988172      -1.90883002
C        8.01005900      -1.46216300      -0.42196100       2.86195650       1.13298286       0.46954397
C        9.30145100      -1.43237500      -0.09548900       6.91428952      -3.28123847       2.01000908
N        9.85283800      -0.12540000      -0.12120200      -6.23319948       1.91851489      -0.03623450
C       11.09302700       0.50169600       0.34519200       3.37666670     -16.73919291      -7.53090258
C        8.63639100       0.66442500      -0.27310000       8.07392392       5.04053366       1.40225257
H        5.88788400       0.83993300       1.23851500      -0.13278702      -1.09534663      -0.45089822
H        4.50747500       1.13604700       0.14657000       4.63257698      -1.14813714       0.15470434
H        4.77898600      -0.47461700       0.63763100       2.04075819      -1.69147866       0.28894461
H        6.37600700       1.18978500      -1.20580100       0.47175996       3.32094937      -2.06767406
H        5.74929400      -0.48883500      -1.53179800       2.53343199       1.33498018       0.76851108
H        7.54048500      -2.34083400      -0.52361500      -3.51991716      -3.59984668      -0.67596247
H       10.05461500      -2.29504200       0.00641500      -1.45340249       1.21160913      -0.11590236
H       11.00361000       1.29725900       0.76040500      -1.34268811      12.56798770       6.53040887
H       11.50835600      -0.38397100       0.90465700       0.18176980       1.59438945       0.98168387
H       11.66700900       0.37791300      -0.59651100       0.82460570       1.75729885       0.31159143
H        8.70141900       1.79688200      -0.25617300      -0.71122774      -1.48412272      -0.15346456
B        8.78678700      -0.78832100       3.30646500       0.97208120       0.29663795       0.87876681
F        8.43673100      -1.69381200       2.19576000       0.56316419      -0.07441087       0.18403816
F        8.01199400       0.38419000       3.03585400       0.68220198      -0.32808780       0.13580160
F       10.23107600      -0.57514200       3.27374800      -1.74723055       0.01442452      -0.45374813
F        8.47719700      -1.31618500       4.61882500      -0.03632068       0.24100909      -1.80062072
48
Properties=species:S:1:pos:R:3:forces:R:3 energy=-41276.1691786453 pbc="F F F"
C       -2.72638300       0.48908000       0.19741800       0.59160714       8.42615733       8.86509284
C       -1.83880800       0.44756900      -0.81664100       4.76949286      -1.61729979     -13.12570873
N       -0.43658300      -0.10043200      -0.75317200      -2.21503068       3.85600938       1.36408215
C       -0.01256300      -1.32855500      -0.59988500       4.80349502      -3.32952602       0.98822448
C        1.36433800      -1.27472800      -0.24797500      -3.12776287      -8.12429390      -0.20549542
N        1.72719000      -0.05129000      -0.12504000      -0.15207385       8.25056754      -0.22565388
C        3.08103300       0.54263000       0.18753900      -1.22302217      -8.43634142      -5.50322859
C        0.58852900       0.69665100      -0.42761500       3.48390893       8.85565589       1.32066352
H       -2.11455800       1.02860600       1.09766500      -1.62388152      -1.99359834      -1.47949728
H       -3.36127700       1.34682200       0.00264700      -1.48920855      -0.26127051      -0.33191621
H       -3.15793800      -0.33737900       0.54793100      -2.50971425      -4.50181239       1.55882909
H       -1.60299500       1.38822400      -1.45699400      -1.05116506      -0.87192003       1.78438737
H       -2.22412800      -0.26556400      -1.64465300       0.10016342       1.01608792       0.88890270
H       -0.56257500      -2.15769900      -0.80409700      -2.30785587      -3.27856850      -0.67514676
H        2.03364600      -2.11223500      -0.15926600       0.50308447      -0.71443812       0.22772633
H        3.16608000       1.49137700       0.56609300      -1.81717601       3.56783148       1.85083643
H        3.54849500      -0.36659700       0.77791600      -4.03664610       2.75184919      -1.29171323
H        3.68403300       0.50439200      -0.86212300      -2.12962444       0.32612981       2.35412050
H        0.73339000       1.93559800      -0.34637900      -1.31778652      -4.31540086      -0.47035467
B        0.74390500      -0.61774800       3.13309900       1.32499942       0.07504659       1.58942641
F        0.38277900      -1.57624800       2.07179400       0.84135700       0.60133532       0.40050918
F        0.01361500       0.55648400       2.94580300      -0.30046083       0.51291055      -0.75923092
F        2.19411300      -0.27668500       3.15489800      -2.09720632      -0.92953955      -0.73998014
F        0.38513800      -1.13523200       4.43624300       0.39392731      -0.15603791      -1.41898266
C        5.25957100       0.23812100       0.86111300       1.29613979       2.05747578       3.16447754
C        6.09223700       0.01995000      -0.41085600       0.50872969       5.68856672       4.00162247
N        7.41590200      -0.40762500      -0.10222900       1.16743280       5.37226225       0.33007259
C        7.89063200      -1.59501800      -0.01742900       1.88195907     -11.56788842       0.24612945
C        9.23643500      -1.68830500       0.31592000      -3.83840690       5.02439747      -0.05443761
N        9.57747300      -0.30822700       0.40302400       3.00137270      -2.19176551       0.67102566
C       10.99998300       0.14381400       0.71084900      -2.53869127      -0.53300558      -1.29416458
C        8.46594500       0.43890900       0.25021800      -0.18242122       4.19492006      -0.13617440
H        5.82091500       0.76067200       1.74688400      -0.38299371      -1.79927602      -1.61416715
H        4.43738100       0.96898300       0.61099400       4.94554879      -0.36676479       1.17900060
H        4.60916800      -0.64466400       1.15790100       3.30490502       0.12715140       0.89715303
H        6.20479900       1.07470000      -0.76034000      -0.12486380      -0.77972660      -1.03060960
H        5.69530400      -0.64848000      -1.03577400      -2.49749485      -3.37455594      -3.93887803
H        7.35732500      -2.58125600      -0.11004300      -0.36653748       1.44637946      -0.23451386
H        9.91518200      -2.43425300       0.40454800       2.66883871      -3.28252422       0.41416577
H       10.83875600       1.10820400       1.13353700       0.67741974       1.64059620       0.73941669
H       11.38399900      -0.57683400       1.40275800       0.78022143      -0.71445673       1.12906281
H       11.51368500       0.13251100      -0.24846700       0.79014896       0.30658055      -0.39651477
H        8.56627100       1.55622000       0.18683700      -0.78707860      -1.04308319      -0.05030888
B        8.64373700      -0.83794500       3.76772100      -1.58332938      -3.33614310       1.10905755
F        8.26685200      -1.87482800       2.70260000       0.60759140       0.83744864       0.37291018
F        7.92678600       0.29098800       3.45795500      -0.25302220       0.81625151      -0.05474339
F       10.00324500      -0.71130500       3.77534700       1.03761412       0.46524794      -0.26746212
F        8.21101700      -1.50183200       5.04728000       0.45549339       1.28780718      -2.15930539
48
Properties=species:S:1:pos:R:3:forces:R:3 energy=-41274.9194423519 pbc="F F F"
C       -2.56628400       0.46288500       0.56709700      -6.86701537      -0.34982771       2.61634487
C       -1.73183100       0.27792600      -0.59637500      -1.21137939       2.35856824      -7.64890779
N       -0.40833400      -0.18009200      -0.34404100       2.55074531       0.54911851       0.25384355
C        0.05747100      -1.46820300      -0.28284600      -0.13350522      -3.19989058      -0.09031426
C        1.38563400      -1.51951100       0.01310400      -1.58326597       4.35411564       0.64904930
N        1.77219400      -0.11848400       0.20067700      -5.12755321      -3.20123384      -2.36861429
C        3.05668100       0.34272100       0.30563800      -1.46418219       2.91744513       3.41160770
C        0.67263600       0.63431900      -0.12712400       0.50962994       4.06316305       0.86936665
H       -1.96929600       0.91961400       1.37220500      -0.23836576      -0.61122416       0.68682438
H       -3.39770300       1.26404600       0.27943900       1.83425641      -1.88174403       0.74934895
H       -3.22177400      -0.56093800       0.81067300       2.52643701       3.23410535       0.01564544
H       -1.60222100       1.38203200      -1.15048400      -0.27532221      -3.40614325       1.33399250
H       -2.18344000      -0.47422400      -1.39069500       0.72288660       1.73016482       1.53984780
H       -0.61121200      -2.30983800      -0.37649800      -0.54274665      -0.49288487      -0.23376481
H        2.09529800      -2.23547400       0.19354300       2.14910347      -2.87582698       0.51163089
H        3.09249800       1.34152000       0.96721200      -1.42153349      -2.26688586      -1.69846692
H        3.56667700      -0.34193000       0.98319100      -3.37077763      -0.36585392       0.23433343
H        3.73575900       0.49501700      -0.53097500      -2.64609138      -0.98655587      -1.93422210
H        0.73291700       1.78225000      -0.11615500      -0.57464040      -1.93049159      -0.06985589
B        0.83108100      -0.76046700       3.43108100      -1.05967261       1.87976735       1.91888036
F        0.52592900      -1.58955500       2.35559000      -0.14554700      -0.92690425      -0.62183153
F        0.06573600       0.48812800       3.25967700       0.22422499      -0.39665423      -0.57341701
F        2.16944800      -0.45815000       3.51387000       1.21923358       0.08291708      -0.58211246
F        0.40298500      -1.21462500       4.72193200      -0.17315590      -0.59194898      -0.75018154
C        5.16508000       0.47904500       0.58501400       5.30550096       8.81939136      -1.82347089
C        6.02011100       0.38386400      -0.65662300      -0.87839725       1.24459351      -3.42862919
N        7.35697800      -0.07843100      -0.28747500      -1.08666749       0.09647769      -1.13840181
C        7.83213700      -1.37675900      -0.26734700       1.59037115       0.62220797       0.53985003
C        9.16837600      -1.13534900       0.03483400       1.24531143     -17.48152695       0.08771252
N        9.54637700       0.06122800       0.03432300       3.61296703       6.89257898       1.62189419
C       10.90753500       0.58436900       0.42693200       0.76584290     -10.81643514      -4.78028101
C        8.39536400       0.73500200      -0.03240500      -1.15237542      11.07692123      -0.16704338
H        5.77947200       0.93533600       1.33054400       0.91188498      -0.41057646       1.64968188
H        4.37819100       1.33149300       0.34383100       5.22609131      -1.44351327       1.71549881
H        4.65710900      -0.35162900       0.76265000       1.74007821      -4.18366112       1.64028175
H        6.07899800       1.39556300      -1.22434400       0.41664770      -1.35993063       1.30709743
H        5.62889700      -0.29907200      -1.47867800       0.26523925       0.15960119       1.14209925
H        7.21115400      -2.24136500      -0.39570700      -0.31225426      -0.83826777      -0.01354803
H        9.91190700      -2.09344200       0.16547300      -1.91392901       3.20154035      -0.32321027
H       10.83199000       1.42757700       0.84564200      -0.63344852       8.77173193       4.67441804
H       11.39010600      -0.26319000       0.99562100      -0.49634083       1.23483399       0.31053920
H       11.41800000       0.58250000      -0.53201200       0.83071526       0.79551934      -0.58366907
H        8.41947600       1.97281200      -0.08896900      -0.53944237      -4.19792537       0.14640263
B        8.60829000      -0.59936300       3.43963300       0.70661343       1.00038833       3.41157996
F        8.21855100      -1.43150800       2.43756400      -0.10121647      -1.86262990      -2.11240451
F        7.92886000       0.64991900       3.16937300       0.70209750      -0.46889007       0.58386056
F       10.06867200      -0.41744600       3.48718600      -2.27636916      -0.23507164      -0.10733324
F        8.11077600      -1.26647500       4.74955600       1.15363008       1.71926573      -2.58239986
48
Properties=species:S:1:pos:R:3:forces:R:3 energy=-41278.3782770848 pbc="F F F"
C       -2.86391000       0.18810400       0.61499300      -1.60043207      -0.11722419      -1.09769640
C       -1.99886400      -0.01610600      -0.61329400      -0.16918354       1.57144697      -3.74344746
N       -0.60281400      -0.43881900      -0.33789100       0.04796572       4.35512884       0.13337292
C       -0.14907900      -1.65001500      -0.23401100       2.60084906     -10.23957176       0.73416369
C        1.22151200      -1.71156300       0.12645800     -10.53618989      11.15720280      -1.99794211
N        1.55240900      -0.23041100       0.09148300      11.25873393     -15.59600172       2.36939976
C        2.82822700       0.12139800       0.47733500       4.15769260       2.81050207      -5.60569011
C        0.53941100       0.33718900      -0.03515400     -17.43507674      16.38831474      -2.73718281
H       -2.22133400       0.62832200       1.34148900       0.63133127      -0.10606726       1.98562672
H       -3.56356100       0.99071000       0.33163300      -0.44213875      -0.28733157       0.15348259
H       -3.42542000      -0.74731400       0.85002800       0.60323171       0.72974757       0.62668513
H       -1.86269100       0.98626800      -1.17476400      -0.32971390      -1.37336056       0.83443023
H       -2.45237900      -0.73607100      -1.38596000       0.75247902       0.67612126       1.15226536
H       -0.77910600      -2.61008100      -0.37111700       0.86207685       1.96337946       0.20495244
H        1.78734100      -2.43470200       0.17313600       7.93744421      -8.98954337       0.83474838
H        2.80750300       1.12105200       0.80409200       0.24546952       1.87998052       1.83216147
H        3.28995700      -0.61515700       1.03847700       0.90068417      -1.82534468       2.52402281
H        3.47303800       0.21364200      -0.52971400      -1.65046196      -0.52685023       2.13526371
H        0.46479200       1.52678600      -0.08613000       0.04138596      -2.99260014       0.22827585
B        0.59233700      -1.03708600       3.45886500      -0.21249543       2.32001399       2.62010109
F        0.17483800      -1.90464900       2.47003400       0.68973391      -1.54611101      -1.54843572
F       -0.16156700       0.17335200       3.19013600       0.21275318       0.29078067      -0.27938339
F        1.98440000      -0.66727300       3.51744000      -1.12131404      -0.94792014      -0.64144203
F        0.13327500      -1.51031300       4.74639800       0.63021804       0.02880777      -0.97335913
C        5.55611100       0.60260400       0.50962000      -3.73195579       1.19972893      -1.01888819
C        6.33072900       0.52888800      -0.77120100       3.89540214       1.49122627       0.53536754
N        7.78835200       0.15926000      -0.48728200      -1.29665140      -4.57718234       0.14061402
C        8.18730300      -1.21020100      -0.35687900       1.60180167      -1.44631851      -0.34552144
C        9.55284100      -1.26412400      -0.11766500      -2.93716269       5.50026313       0.80760296
N       10.02872700       0.11658600       0.05397200      -7.00254643      -3.83223457      -1.05418943
C       11.28900000       0.57429300       0.42166300       4.51375158       0.30330213      -5.64074555
C        8.87187200       0.85524900      -0.14528100       2.80296581       7.30880888       0.81747901
H        6.12380200       1.07016200       1.27036200       1.46900887      -0.15311647       1.85791374
H        4.80544200       1.44903300       0.28654800       0.71616970      -1.70327517       0.57023729
H        5.02055200      -0.37071300       0.75059000       1.53358455       1.54983965       0.20652161
H        6.54654100       1.49369300      -1.23973000      -1.08401866       0.70578084      -0.41449791
H        6.03799400      -0.19429100      -1.48610400      -1.03276085      -1.29280043      -1.42853099
H        7.63451500      -2.16142400      -0.36465800      -0.85982972       0.73317194      -0.43988599
H       10.22229100      -1.99616800      -0.00795000       3.26367386      -4.25969215       0.60143725
H       11.27437500       1.55708100       0.75410500      -0.33601501       2.70708696       1.97914399
H       11.82111400      -0.13380100       1.03407900       0.62277871      -0.55372478       0.77268281
H       11.76797600       0.73673900      -0.69052400       0.14741753      -0.77671902       3.10852468
H        8.96600700       2.02871800      -0.15361300      -0.58346047      -2.59774165       0.00747116
B        8.94557600      -0.48914000       3.33951000       1.14174500      -0.75778331       1.34798544
F        8.65563400      -1.42746600       2.19051600       0.25049670       0.81523546       1.25073153
F        8.34310400       0.73966900       3.10034200      -0.86919018       0.31661510      -0.49357749
F       10.37603100      -0.23474700       3.33337700      -1.23637365      -0.87462681       0.02275825
F        8.47923800      -1.02145600       4.66463900       0.91689929       0.56722843      -2.96526698
48
Properties=species:S:1:pos:R:3:forces:R:3 energy=-41273.9540363312 pbc="F F F"
C       -2.73073500       0.25177700       0.46874200      -2.22263530       5.14573380       3.27074836
C       -1.79253300       0.12599800      -0.67912600      -9.32444953      -0.23850175      -6.70501907
N       -0.55757300      -0.33579400      -0.50895800       6.31014331       1.46953915       1.65142825
C       -0.07821300      -1.56188600      -0.33459100      -3.31214365      -7.24193558      -1.49151564
C        1.22011500      -1.52924300      -0.10017700       2.54908766      -9.85177562       1.46244590
N        1.58721000      -0.32458800       0.17193100       1.45403281       6.30377014      -0.53465764
C        2.99789700       0.11651400       0.31403400      -9.59750938       6.26168916      -0.78435001
C        0.52670700       0.47317600      -0.21437000       0.98799120       4.70562999       1.04666705
H       -2.09079900       0.73490600       1.34552800      -1.86008353      -1.68767684      -1.30225824
H       -3.57713000       1.09154700       0.21488100       2.61119460      -2.16017540       0.41300249
H       -3.35838400      -0.60187900       0.70476300       0.53184855      -0.96782371       0.64645196
H       -1.72345900       1.12002100      -1.13604200       0.12785403       0.32346559      -0.43518334
H       -2.36230000      -0.61843800      -1.52291300       1.86303640       2.45344427       2.34332765
H       -0.67382300      -2.49136000      -0.48713000       0.16831548       0.87217034       0.05195956
H        1.85942300      -2.44512500       0.11634700      -0.76554036       1.39769875      -0.40059821
H        2.89731500       1.18884200       0.90552100       0.04678445      -2.93934656      -1.98008867
H        3.41678800      -0.47451900       1.03093400      -2.25761483      -2.46291306       2.83187189
H        3.52081800       0.26150100      -0.66387300      -3.11244456      -1.54388886      -0.01459042
H        0.61303900       1.59026300      -0.09322000      -0.75679600      -1.19375866      -0.28628399
B        0.60276700      -0.88558100       3.37165100       0.72186366       1.73494793       1.50399454
F        0.36802500      -1.78002100       2.36273700      -1.29506460      -1.14383529      -1.77124469
F        0.00696700       0.42092200       3.21478700      -0.42545282      -0.70469285      -0.56678977
F        1.98500400      -0.66807300       3.37980800       1.80054407       0.50639826      -0.31179534
F        0.28041700      -1.41390000       4.62109700      -0.83698482      -0.37941536       0.58866772
C        5.02789600       0.21330300       0.36253300       6.19837898       4.92602487       4.89677040
C        5.83722900       0.15291700      -0.80312300       6.60079157       2.19939785      -4.47962946
N        7.36657500      -0.24548100      -0.54672900     -11.24869556      -6.86448500      -2.67506096
C        7.72451800      -1.63608400      -0.49970200       5.63891373       6.24095777       1.08061835
C        9.05389900      -1.65586200      -0.15024500      -2.59408017       3.19327554      -0.05129767
N        9.37595500      -0.24460700      -0.09647600       9.21474339      -4.22979116       2.91568150
C       10.78559200       0.24571500       0.33379600       0.38612755      -3.56250555      -4.87846791
C        8.34392600       0.47646600      -0.28644000       1.94272634      11.74576640       0.98041723
H        5.55501600       0.75768700       1.22533500       0.14953492      -1.71263201      -0.77443489
H        4.39119600       1.04244200       0.09456700       1.51163252       0.60997972       0.93733335
H        4.43726000      -0.60372300       0.67935300       5.04702637      -1.46016562      -0.35980348
H        6.00428600       1.18331800      -1.35688300      -0.69495883      -1.83019153       1.37709198
H        5.55104400      -0.52725400      -1.59136400      -0.59552580      -1.00575755      -0.63637153
H        7.10818000      -2.35522500      -0.63070500      -5.72322224      -6.16422358      -1.20588852
H        9.73528800      -2.40120500       0.08210700       1.99418380      -2.06741642       0.50313049
H       10.77520100       1.20730600       0.72785100      -0.41388606       2.65725030       1.63069659
H       11.24405400      -0.54575100       0.96956000      -0.30923788       0.54213839       0.14872783
H       11.33830900       0.29316100      -0.70703300      -0.58593938      -0.08089009       2.26232062
H        8.37343900       1.62659100      -0.25353200      -0.23817492      -1.90863401      -0.04733814
B        8.41858200      -0.77455000       3.23652800       1.85682209      -3.11768572       3.25684879
F        8.13787200      -1.79350300       2.30641600      -0.11382935      -0.56869106      -1.66061200
F        7.70414900       0.34444200       3.00208400      -0.43427970       1.93146278      -0.70774932
F        9.88252900      -0.68384100       3.28013100      -1.77215847       0.71825198      -0.16743863
F        7.94668700      -1.39231000       4.53966600       0.80079141       1.13506983      -1.57501923
48
Properties=species:S:1:pos:R:3:forces:R:3 energy=-41277.4435070961 pbc="F F F"
C       -2.92032800       0.50843800       0.08247000       0.51726341      -2.16044272       6.58576342
C       -2.03250100       0.37187900      -1.05779900       1.07609285       1.79476422      -4.15818210
N       -0.67161500      -0.09080400      -0.78258900       1.17420755       0.41480512       0.21978414
C       -0.29217100      -1.38822700      -0.68534300       8.94267677       5.20570695       2.64656124
C        1.09046800      -1.42821700      -0.44368400      -0.72212579       2.30916069       0.76820078
N        1.52742100      -0.06141000      -0.31817400       2.18873201      -2.23799543       0.08950224
C        2.86394500       0.55642500      -0.04567500       0.46023008      -8.95980142      -0.72625681
C        0.48553700       0.64329700      -0.53025700      -7.07629643       7.98960324      -1.22249907
H       -2.38688800       1.02066600       0.97921700      -0.52465897      -1.65970312      -1.25389479
H       -3.60294600       1.22260100      -0.11763000      -3.71029977       3.04972552      -1.47023140
H       -3.50403800      -0.43957300       0.42400000       1.60550934       1.65270105      -0.64147430
H       -1.87938700       1.34346600      -1.63037400      -0.28907797      -0.56159880       0.96632877
H       -2.48675800      -0.26532100      -1.82178700       0.08461285      -0.83423659      -0.32251399
H       -0.77183400      -2.14335000      -0.90546700      -6.88799156      -9.39732085      -2.56146872
H        1.93501500      -1.97244100      -0.17673000       1.25040579      -3.29637105       0.31592183
H        2.84154100       1.40359300       0.49523000      -0.71731091       4.49012125       2.38491507
H        3.26566300      -0.31902000       0.64756500      -0.35944824       2.34820690      -1.31422705
H        3.39692900       0.56185900      -1.00493300       0.23647415       0.41426711      -0.07281423
H        0.35381800       1.75714300      -0.58124400       0.73242122      -0.91136691       0.25094775
B        0.42582200      -0.71181500       3.09998400       4.48541392       1.54869516      -5.22273471
F        0.14194700      -1.55986500       1.87876500       0.85323047       0.13237666       1.37546979
F       -0.17944200       0.47895700       2.74198900      -0.25147975       0.95378761       0.33619875
F        2.06268300      -0.44796800       3.10459600      -3.69152993      -0.68831102      -0.52865581
F        0.14266400      -1.21131200       4.25889000      -1.21048753      -1.84972046       3.24479448
C        5.61338200       0.55910900       0.51103100      -3.46059699       4.48680319      -0.93027163
C        6.37568700       0.41166000      -0.73989600       1.79556959       1.86499799      -4.26785207
N        7.79240100      -0.08015900      -0.51123100      -7.18643208       0.88126981      -1.77340643
C        8.17069000      -1.33567900      -0.35674300       7.60031289      -0.36546895       0.66164209
C        9.57135700      -1.38363100      -0.20250700      -3.01145940       3.87579894       1.93821489
N        9.84890900       0.03910700       0.13359600       4.63976997      -5.54878334      -0.51526941
C       11.24027200       0.54153200       0.25418600       0.81956448       1.42905659       2.64932076
C        8.77961400       0.67920800      -0.22160100       2.26347420      11.26565224       1.02254040
H        6.17789500       0.99772100       1.33382500       0.36541798      -0.48282480       0.62565435
H        4.77844200       1.35309300       0.19318800       2.66747639      -1.42288566       1.34682278
H        4.99412500      -0.26371700       0.66634600      -0.34071743      -2.50841005       1.62723210
H        6.36850600       1.41763000      -1.30854000       1.24799977      -0.92504823       1.33902046
H        5.99893900      -0.17257700      -1.60273800      -0.60495136      -1.14746856       0.91358278
H        7.66864900      -2.13806200      -0.50801500      -5.12739452      -6.51526925      -1.38354795
H       10.28633600      -2.10945200       0.00613000       1.57401691      -2.13753836       0.50771195
H       11.29203300       1.56618500       0.83984000      -0.34967636      -1.78789957      -2.05481882
H       11.74274100      -0.14076300       0.96892200      -0.03366326      -0.22365170      -0.14683389
H       11.75405800       0.44189400      -0.71682600       0.10970190       0.75870535      -0.16315050
H        8.89983100       1.80897000      -0.22943300      -1.20786163      -1.35013197      -0.17075275
B        9.07586200      -0.52668700       3.45070300      -9.92280752      -1.50720098      -1.07320927
F        8.55583100      -1.64334600       2.36361700       1.76414111       2.24219727       0.98300358
F        8.16314100       0.66840400       3.11779600       1.97833675      -2.10399222       0.15429640
F       10.30825600      -0.24028700       3.45121300       5.81049943       1.12283477      -0.75277656
F        8.58622600      -1.12435700       4.63035900       0.44469561       0.36657243      -0.20892337
48
Properties=species:S:1:pos:R:3:forces:R:3 energy=-41269.3962846586 pbc="F F F"
C       -2.98937400       0.25910800       0.48661800       3.25990103      17.60424960       4.27026151
C       -2.03494800       0.27002500      -0.55531800      -0.19817878      -0.03230390     -11.56130641
N       -0.67193700      -0.23812200      -0.27415200      -8.10590774      12.96109484      -1.08327427
C       -0.37110600      -1.41260400      -0.31537200       3.23021976     -16.78243652      -0.50925953
C        0.98495700      -1.35795700      -0.03549300       2.82811663     -12.88347502       1.32448349
N        1.46172400      -0.18394400       0.12718700      -4.94380200       5.67440509      -0.38460217
C        2.71322100       0.24427100       0.44090300       0.89147988       8.75386030      -6.98526924
C        0.31848400       0.62377300      -0.06711200       2.90183146       4.57333425       1.17839836
H       -2.30908400       0.88161400       1.35165500      -2.84472818      -3.41673741      -1.16830244
H       -3.77541600       1.22499100       0.26617100       2.19130941      -3.60378225       0.42826711
H       -3.48812800      -0.52030500       0.52704100      -5.71703845      -9.75132828       2.16417414
H       -1.95910900       1.24216600      -1.25658900       0.33770169      -1.61855899       2.73093659
H       -2.45108000      -0.43196500      -1.48690700       1.39837194       1.29479969       2.79912881
H       -0.96459000      -2.45784500      -0.47600400       1.27406498       3.68265611       0.47975881
H        1.72545300      -2.24909800       0.09442000      -1.78089892       1.59655141      -0.41251477
H        2.75604500       1.34965900       0.80330600      -0.94143602      -2.36809201       0.25577537
H        3.24703400      -0.35788400       0.99238900       2.40864032      -4.35076591       4.53436146
H        3.36652600       0.42683100      -0.60699500      -3.83034844      -1.74161880       2.58805164
H        0.32387800       1.74354200      -0.11303000      -0.31699109      -1.19304778       0.14096214
B        0.38663300      -0.74923700       3.38455100       2.22456410      -1.38769707      -0.06242142
F        0.07731600      -1.70837600       2.21698800       0.61741364       0.66820795       0.70774489
F       -0.31636600       0.39522900       3.10519900      -0.52904730       0.96921919      -0.33658471
F        1.83325400      -0.54139400       3.41798600      -1.66605434      -0.08117487      -0.70729612
F        0.04354900      -1.34179400       4.61298200      -0.45038184      -0.09057515      -0.67776769
C        5.01867600       0.60016600       0.17965600       3.81303643       2.73489779       4.20199020
C        6.06660800       0.54245300      -0.90603900      -3.80337537     -10.47889489      -3.34924030
N        7.44516500      -0.03697100      -0.65789500      -8.47929223      12.10447162      -1.67545599
C        7.77851100      -1.21370000      -0.49666900       2.90124616     -14.14727415       0.21924678
C        9.23874800      -1.16526000      -0.28188900     -11.44414950     -11.10577689      -1.55737923
N        9.40885800       0.00703400      -0.17326700       9.86734325      16.69452042       1.68825254
C       10.80907500       0.48884300       0.08364400      -0.70091338       7.41175640      -4.68994388
C        8.41442300       0.89498200      -0.45324800       0.98895238      -6.28384917      -0.66194738
H        5.65530800       1.06168000       1.03353000      -1.03177362      -1.31091823      -0.32083038
H        4.24718100       1.44746000       0.06668500       2.91031347      -1.31731734      -0.44824043
H        4.56413300      -0.37729300       0.49324700       2.49514281       1.31349060      -0.47473392
H        5.95025000       1.34317700      -1.45917100       1.34859891       6.46402316      -3.35982428
H        5.55562800      -0.27147800      -1.88870100       2.04128928       2.48602692       3.77632664
H        7.09702400      -2.14289900      -0.76063200       1.62375670       2.30275020       0.82170263
H        9.81100700      -1.94836300      -0.20022100       4.60526225      -5.26232862       0.79223541
H       10.80823100       1.55688300       0.49973800      -0.52405707      -1.68863108       0.18361332
H       11.26571500      -0.13834700       0.69725500       2.84598425      -3.97075797       3.97281777
H       11.43653900       0.69494100      -0.87548500      -1.38976254      -1.27847076       1.14526860
H        8.41641500       1.85434100      -0.28754600      -0.31116171       6.77735038       1.11495572
B        8.55860000      -0.52497400       3.11980300      -0.42060257       1.44048220       0.39842431
F        8.19278200      -1.49263700       2.06274300       0.35838138       0.66107246       0.17643349
F        7.74314200       0.73497200       2.83719100       1.70374796      -2.34110389       0.21069162
F        9.96932000      -0.29848300       3.14749100      -0.81953065       0.29990229      -1.17377008
F        8.28119200      -1.03215000       4.40805400      -0.81486569      -0.01894384      -0.70872555
48
Properties=species:S:1:pos:R:3:forces:R:3 energy=-41272.3877631393 pbc="F F F"
C       -2.81851600       0.27749800       0.27109700       3.21749994       4.15741663       2.99967520
C       -1.93198700       0.24141700      -0.88260200      -0.62493793      -4.94974247      -4.78911373
N       -0.60436400      -0.40157200      -0.62048100      -0.24636547      10.45651067      -0.05464588
C       -0.04403600      -1.55540300      -0.67510600      -8.42378384     -13.28564968      -1.69834275
C        1.13820600      -1.54134400      -0.16889900       9.02459838      -3.51428784       2.49999526
N        1.61901400      -0.24148300      -0.06277800      -2.69254224       0.23032274      -0.01203306
C        3.02333600       0.20338800       0.20549100      -6.83850608      -1.52004998       0.42787941
C        0.46972800       0.44953500      -0.32336400       0.28298042       9.93382926       0.75869917
H       -2.27959700       0.74680300       1.13012500      -0.21363520      -0.94104991      -0.02329160
H       -3.49700500       1.00373900       0.04623700      -3.08985443       2.82630312      -0.94576076
H       -3.35789600      -0.52593400       0.53113400      -1.85896065      -4.58461519       1.24923542
H       -1.87606500       1.15824600      -1.46195200       0.88483342       1.01160159       0.20957117
H       -2.39234100      -0.50034300      -1.64950900       0.53200711       1.11215845       0.96098760
H       -0.87917700      -2.53258600      -0.74090500       3.62963676       3.31313234      -0.03924635
H        1.94263400      -2.27610900       0.03174400      -1.07030155      -0.48671703      -0.30044001
H        2.95680800       1.17469400       0.54977600      -0.54767074       2.72717597       2.10672214
H        3.35758600      -0.49132500       0.92300800      -0.02884936      -1.50991477       1.42431178
H        3.38736000       0.31816100      -0.73383500       2.07500811      -0.93984342      -3.88403942
H        0.55442600       1.80852700      -0.30894000      -0.99372459      -5.74936859      -0.14059099
B        0.63616400      -0.82337600       3.17182900       1.43944342       0.75773455       2.83634584
F        0.23411600      -1.75292900       2.20308800       0.48387838      -0.17996487      -1.21016295
F       -0.08119200       0.43598000       2.94346000       1.19403922      -1.64945836       0.27249747
F        2.14782000      -0.60307000       3.25154800      -3.23893781      -0.30731673      -0.93197053
F        0.28385600      -1.48622500       4.46918100       0.33075387       1.47641895      -1.89611995
C        5.36870900       0.68878000       0.24109000     -12.95497843      -4.18293095      -8.49047189
C        6.19398700       0.41539400      -0.98783600      -7.04551084       9.43131720       0.37930187
N        7.42682400       0.12638100      -0.75877600       8.72266921      -6.04909275       1.76474500
C        7.90586400      -1.17187100      -0.64527500       3.98808290       2.15437930       0.24335353
C        9.23128700      -1.23042700      -0.41724100       1.81728802       5.41761320       1.49300497
N        9.70288700       0.25237900      -0.23689200      -8.33327540      -5.27007445      -2.61300721
C       11.03586100       0.70194200      -0.02643000       0.08890645      -2.77125811       5.10300010
C        8.45217400       0.91040500      -0.59589200       7.93367500       2.35350717       2.08782131
H        5.82682300       1.04726800       0.95014300       6.65563008       4.91048117       9.44005017
H        4.44360900       1.50331500      -0.13913500       5.11544677      -2.08401478       1.66367076
H        4.61812700      -0.21281900       0.63004200       5.94250254       2.89027047      -1.21616871
H        6.25746500       1.41088800      -1.52881300      -0.36641078      -0.45041584       0.43861628
H        5.87694500      -0.14544800      -1.72218000      -3.47139225      -4.85951085      -4.58318763
H        7.41147800      -2.00667400      -0.73506400      -4.54942405      -5.46334594      -0.81448210
H        9.95829500      -1.97617100      -0.23214500       0.87231883      -1.64377156       0.17503118
H       10.95902000       1.66542700       0.41742400       0.45513016       1.64715394       1.00195876
H       11.43528600      -0.12377200       0.72986600      -0.10507997       2.33601613      -1.60920535
H       11.52120700       0.72934200      -0.91943400       2.81084265       0.11227843      -3.77875022
H        8.55030400       1.93949200      -0.51138800      -0.96311026       3.10224702      -0.10161460
B        8.68535400      -0.45350600       2.95846900      -0.25328596       0.53864469       3.45963003
F        8.39289200      -1.42106600       1.95606600      -0.13228771       0.76359069       0.63492220
F        8.03715000       0.84958800       2.79963300       0.60320636      -2.40168909      -0.21514702
F       10.06596200      -0.29005000       3.14465400      -0.00269612       0.09701032      -0.84533550
F        8.32953000      -1.03207900       4.43992100      -0.05184630       1.01854205      -3.43008084
48
Properties=species:S:1:pos:R:3:forces:R:3 energy=-41266.0990094068 pbc="F F F"
C       -2.55989600       0.54034800       0.64074400      -1.12160614      -4.51075721       1.97016266
C       -1.65461800       0.17613900      -0.57634900      -7.59996245       8.22391248      -3.11374436
N       -0.37243700      -0.01760600      -0.29359900       6.17652079      -7.53304611       1.32516493
C        0.09415500      -1.36390900      -0.15525600      -6.29712913      -4.38527345      -2.01249649
C        1.35596000      -1.38029600       0.15115400       4.96002341      -4.37916884       1.13016551
N        1.81946600      -0.09247200       0.22061600      -5.20825283      -0.53574861      -0.17489409
C        3.08465300       0.34028200       0.52194200      -7.35049873      -1.01157804      -1.91436353
C        0.71180000       0.67658400       0.04294400       0.43119505       1.36422944       0.52996022
H       -1.95797000       0.84436200       1.53453400      -0.33772053       0.25443724      -0.71649156
H       -3.32061600       1.22408800       0.31907200      -0.54939895       1.17494491      -0.05539649
H       -3.14361400      -0.42510000       0.96181400       1.20810559       1.88750016      -0.39279025
H       -1.60087300       1.25883900      -1.05717400      -0.46091892      -2.06820532       0.11737158
H       -2.15133900      -0.43595500      -1.36453500       0.67196759      -0.53782133       0.63084048
H       -0.55582300      -2.33808500      -0.34156000       1.24094602       2.84817356       0.43569372
H        2.03596000      -2.28205200       0.24452200      -0.80771709       1.27213653       0.04770298
H        2.96079300       1.38160600       0.97514700      -0.28429253      -1.34455546      -0.14535972
H        3.67349900      -0.42629400       1.10320900      -9.18781054       0.84913209       1.90520675
H        3.75993800       0.32922000      -0.41555900      -6.50814076      -1.91372327      -0.94346182
H        0.71474100       1.68373400       0.01809500       0.25812692       4.76502585       0.02356311
B        0.92136400      -0.73931200       3.53122600      -5.42592213       0.81767595       1.10913744
F        0.41857600      -1.59827600       2.47973200       1.11367363       0.15265035       0.38283248
F        0.13641900       0.58905100       3.21345100       1.48788140      -1.87222190       0.33012116
F        2.23947500      -0.48555500       3.54324600       1.27635375      -0.09202409      -0.05587905
F        0.31150800      -1.25402900       4.81976900       1.67175354       1.12134104      -2.55621913
C        4.98672400       0.51192600       0.51685300       9.67119953      -0.59704336       2.66011681
C        5.83181100       0.24318500      -0.64889800      -0.53586055       3.97977851      -2.79668991
N        7.15162400      -0.16315500      -0.29495700      -3.96632499       3.32717455      -1.40195873
C        7.52141600      -1.35061900      -0.25826400       4.91160067     -18.84928799      -0.03353498
C        8.94416600      -1.58137200       0.01391200     -16.14968232      17.66953285      -1.16455783
N        9.25716000      -0.11368400       0.17768100      12.60354816     -10.46137436       2.18783212
C       10.72211800       0.33629000       0.42223800      -5.06824266       3.10868404       5.70524738
C        8.25856200       0.49054000      -0.13718500      -5.70016007      15.34361484      -1.15665333
H        5.47840700       0.87015400       1.33133600       3.24730513       1.38086320       3.12347335
H        4.20111500       1.16348900       0.32221000       5.09045309       3.58398116       0.87956690
H        4.48789300      -0.41932200       0.88003100      10.07906500       0.90873064      -1.49965684
H        5.96438400       1.20857100      -1.20933600      -0.02925111      -0.49819625       0.00179547
H        5.33972500      -0.44090800      -1.33942300       0.28191256      -0.89024815      -0.48634476
H        6.96891000      -2.34691200      -0.50175100       0.04460133       2.64648388       0.52631646
H        9.53615600      -2.21071100       0.11455800      11.88793351     -13.25356892       2.09187237
H       10.57667900       1.46127600       0.86929400       0.98683318      -3.33163632      -0.82254972
H       11.11724600      -0.43217100       1.11950800       0.23665017       0.59402112       0.09873386
H       11.16512000       0.38734000      -0.47679900       2.71472148       0.06320253      -4.78237990
H        8.22139400       1.57391700      -0.13284500       0.01952839       0.69834823      -0.03214204
B        8.38546300      -0.69045800       3.47379900      -0.08711202      -0.56304890       0.11387137
F        8.09088100      -1.73834200       2.45810700       0.63508164       0.81142630      -0.44309305
F        7.65065500       0.52328900       3.04188600       1.30824261      -1.96128641       0.92136786
F        9.80865000      -0.49968500       3.58149300      -1.42544842       0.32030636      -0.65933668
F        7.95434200      -1.36120400       4.67941800      -0.11375498       1.41181291      -0.88263474
48
Properties=species:S:1:pos:R:3:forces:R:3 energy=-41266.6744984867 pbc="F F F"
C       -2.66597600       0.47165200       0.43487000      -1.79197226       4.11170733      -4.96701320
C       -1.71227300       0.28082100      -0.84083900      -8.85281790       9.91883218      -0.27725797
N       -0.48334700       0.03903000      -0.51320900       6.79435560      -9.67107196       1.03444186
C       -0.03239600      -1.37080600      -0.43315100       2.82706530       4.08460973       0.46878585
C        1.32328200      -1.23974600      -0.21818100       0.54644231      -7.82403663       1.43246084
N        1.65369100       0.05060100      -0.08235400       6.82876753      -1.53058997       0.52772280
C        3.15037400       0.51318500       0.16806900     -14.53415646      -4.72262613       2.60504140
C        0.60782100       0.73350200      -0.30154500      -2.21489664       9.55134887      -0.22755999
H       -2.05879700       0.91627400       1.17652400       0.83997962      -0.14184721       2.26299091
H       -3.37137300       1.36915300       0.04633200       1.27839958      -2.64201359       1.41650905
H       -3.24706800      -0.40629200       0.56505400      -0.65788507      -1.31924167       1.22045642
H       -1.63596400       1.37852800      -1.30897400      -0.75733648      -2.35105190       0.69327336
H       -2.20407900      -0.28631500      -1.54718100      -0.91048233      -2.61707161      -2.44936776
H       -0.50566900      -2.27111900      -0.58311500      -2.48330471      -2.35103649      -0.51280543
H        1.99786700      -2.16742600       0.03749100      -1.10304047       2.46993323      -0.74096021
H        3.03488600       1.44764600       0.72419100      -2.35353098      -0.30427950       0.33904610
H        3.57190100      -0.34953400       0.87856700      -8.99771942       0.31260380      -0.19244908
H        3.66238400       0.52958400      -0.73173500      -1.15602555      -0.74324997      -3.74191561
H        0.72444000       1.82481900      -0.38659100      -0.77792266       0.01434773       0.07003481
B        0.70368200      -0.73207900       3.34356200       2.57373608       4.23778228      -6.49496588
F        0.44760500      -1.55472400       2.06516100       0.52834333       0.67238222       2.11305224
F       -0.03851000       0.58780500       2.92954000       1.50380289      -2.68142755       1.18774657
F        2.22366500      -0.40572200       3.28124800      -3.37236390      -0.79309790       0.02949551
F        0.35130300      -1.24569600       4.48786500      -1.08096145      -1.29146365       2.30413271
C        4.92949100       0.74670600       0.45443600      17.74043120       5.73436616       0.58391312
C        5.91181900       0.56681300      -0.81355700       1.25262525       4.28485595       3.38697434
N        7.29229600       0.02233000      -0.52698000      -3.31654669      14.94936531       0.00080398
C        7.65018700      -1.13942100      -0.37363400       8.16760317     -12.20900667       1.95844501
C        9.03177500      -1.08133300      -0.00877000      -2.76739535       0.72967142       0.07145155
N        9.51537200       0.24647300       0.09719700      -1.43318128      -4.02135064      -0.77148373
C       10.87423500       0.72426300       0.24474900      -6.12964850      -0.19858858      17.50636813
C        8.40998300       0.91249200      -0.09751500      -5.70454720       7.72661239      -1.53851648
H        5.73180800       1.16357500       1.19472500      -2.08503431      -1.28576417      -0.22297203
H        4.23249400       1.52691800       0.24970300       4.60635022       2.06891848       0.51097690
H        4.39799900      -0.10412600       0.60095900       8.16342507      -1.34756250       1.17612772
H        6.08585400       1.58257300      -1.24918000      -0.06588978      -0.58317926      -0.03282577
H        5.50144500      -0.04074500      -1.50361400      -1.97389570      -3.14283005      -3.70342606
H        7.23128000      -2.12584400      -0.57928900      -0.92158871       0.28811400      -0.13572095
H        9.64570700      -1.86333800      -0.04355900       3.57902673      -4.26821487       0.24750966
H       10.88279800       1.70402100       0.84040600      -0.10301130      -1.07819394      -1.35238440
H       11.17926600      -0.05085200       1.03397600       1.03692779       1.01751273      -1.14273231
H       11.28254100       0.72599900      -0.54662500       7.80688069       0.05586084     -13.70726689
H        8.43394800       2.10714800      -0.07333500      -0.77003648      -3.18433273      -0.29688846
B        8.33996200      -0.38447500       3.33103600       3.57789008       2.68304304       4.85877609
F        8.20799200      -1.25360900       2.35347500      -1.29618747      -2.56907144      -3.14704626
F        7.71958800       0.87218800       3.18025900       0.29156348      -0.50794199      -0.70279450
F        9.95027200      -0.21348400       3.32793300      -2.38028271       0.33605084      -0.06901966
F        8.07509500      -0.86335100       4.66676400       0.04394500       0.11708495      -1.56542522
48
Properties=species:S:1:pos:R:3:forces:R:3 energy=-41272.703588061 pbc="F F F"
C       -2.40177300       0.07232000       0.39547700      -5.42769818      -2.51554769       1.95859027
C       -1.51329600      -0.21368900      -0.79442300      -4.57354785       6.44015634      -2.41078867
N       -0.18094000      -0.50172400      -0.48078700      -7.77133419      -6.58015641      -1.73684642
C        0.16922900      -1.81662100      -0.34126600       1.22376591      -3.75841061      -1.21392296
C        1.51382400      -1.74368300      -0.21533400       5.43026502      -3.25557455       3.58762925
N        1.99557400      -0.33958700       0.04566700     -10.69172433      -8.90411856      -2.85418589
C        3.25402900      -0.02376400       0.36404100       0.58086260       5.43779946      -4.75700816
C        0.79942000       0.22936600      -0.34355200       9.83986365      15.05703926       3.42902698
H       -1.86837500       0.48352200       1.23996200       0.63051555      -0.12664203       0.84837206
H       -3.23756200       0.79463800       0.17747600       1.16489852      -0.09765259      -0.50096019
H       -3.10390700      -0.85766100       0.70166100       2.64861449       1.92371204      -0.27364611
H       -1.60070200       0.81987500      -1.30330600       1.30855531      -1.22568857       0.37947016
H       -2.03716900      -0.77503500      -1.55678500       0.39716010      -1.86214137      -0.30115887
H       -0.38430200      -2.73749500      -0.68698500       0.01577031       1.38152499       0.71490733
H        2.20782900      -2.65063300       0.04151300      -1.26422519       2.03775643      -0.74259965
H        3.17973500       1.04415600       0.75774400       0.60102356      -1.53225841       0.20340623
H        3.76850600      -0.70944500       0.95593100      -0.71166621      -2.02216540       2.59205683
H        3.86260100       0.05969100      -0.71013700      -4.09834981      -1.06273367       2.65889777
H        0.83976900       1.38435700      -0.12201400      -1.13639821      -2.30345899      -0.99432782
B        0.92456000      -1.00139400       3.39351900      -0.38653210      -1.44166553       0.64241206
F        0.48447500      -2.07603400       2.31191000       1.28689448       2.08803609       1.19620135
F        0.15684400       0.17336800       3.19180900       0.70277059      -0.76104433      -0.41791772
F        2.34510600      -0.76713500       3.44177100      -1.70976074      -0.28092608      -0.96545024
F        0.54576500      -1.64274200       4.63382900       0.17553804       0.48421036      -1.18472901
C        5.38347500       0.40256300       0.09083700       1.13812825       8.88279758       2.80607203
C        6.13905100       0.31376900      -1.10084400       1.45603738      -1.23258934      -6.62831747
N        7.48158000      -0.15568600      -0.81512700       8.10852195       1.79387972       0.93732459
C        8.13268400      -1.44140300      -0.70976400     -14.70322873      -0.48648883      -3.71134582
C        9.30307700      -1.36245100      -0.35493500      11.06057093       0.08634106       3.32144009
N        9.76504500      -0.01612400      -0.27892200      -2.42171947      -2.36460672       0.28822868
C       11.11835800       0.32305700       0.02128100      -3.75243959      14.00867837      -4.73850515
C        8.65793300       0.74674700      -0.48957200      -3.80424318       0.08614154      -0.89606212
H        5.96661600       0.98680500       0.85989600       0.13749523      -1.64190374      -0.04593101
H        4.61405300       1.27497900      -0.16289100       3.08494988      -1.87705117       0.92946054
H        4.86350400      -0.43564800       0.35461300       2.57108564      -1.95615057       1.37764185
H        6.24758900       1.31926700      -1.52745200       0.35760169       0.33327955      -0.29799853
H        5.72111600      -0.33110400      -2.00838700       0.53151037       1.04811805       2.22939036
H        7.40196000      -2.24230700      -0.88782700       0.80198095      -0.56197427       0.13830226
H        9.96771800      -2.17778700      -0.21348600       1.19241084      -0.99008021       0.34575888
H       11.13982400       1.53995800       0.47750000      -0.28713289      -4.63726984      -0.82423558
H       11.57225200      -0.25276800       0.59661100       5.22135069      -7.14675117       6.81825351
H       11.58014000       0.56787100      -0.91922000       1.34170561      -0.71948050      -1.18833519
H        8.72384000       1.83643300      -0.57164500      -0.44850842       0.17661175      -0.01329927
B        8.70527500      -0.59495400       3.08836000       3.92252711      -0.76405646      -4.40636940
F        8.36871000      -1.61386000       1.94660700       0.80584140       1.13989636       1.13193742
F        8.12125000       0.56877500       2.73378300      -0.94431653       1.74183895      -0.47162062
F       10.24510900      -0.37135100       2.99674400      -2.86238424      -0.69839087       0.09154288
F        8.33419200      -1.12973100       4.22216600      -0.76535463      -1.33794347       2.94174665
48
Properties=species:S:1:pos:R:3:forces:R:3 energy=-41277.0876673493 pbc="F F F"
C       -2.78349200       0.55197100       0.54528700      -4.83901624      -2.33553509       3.45046318
C       -1.98891000       0.45713100      -0.64929700       2.04491717      -7.83655190      -3.48491883
N       -0.53408000      -0.07854100      -0.36925600      -5.97975096       2.70241904      -1.73305776
C       -0.07545300      -1.32316500      -0.29437500      -4.64176812      -8.94670133      -1.57240027
C        1.21734900      -1.40198700      -0.01325800      -2.96222566       8.16466067      -0.46035231
N        1.62965400      -0.03503900       0.10036300      -5.87254036       0.39402028      -0.49038743
C        2.92351900       0.39389900       0.45751800       0.05337321       5.63194914      -5.39581432
C        0.42345200       0.78420500      -0.13662900       7.22547866       2.65694786       1.99471457
H       -2.23713500       0.98533300       1.38654500       0.31101175      -0.24438492       0.53991888
H       -3.52235200       1.29165900       0.24357100      -0.95845116       0.40495711       0.42177527
H       -3.42441300      -0.45807300       0.86280700       2.51284092       3.11021387      -0.88376565
H       -1.89777600       1.32883000      -1.15778800       1.00728083       4.36732208      -1.91125519
H       -2.41802100      -0.28142700      -1.49590600       0.85393584       1.47112262       2.31949388
H       -0.78315400      -2.26745200      -0.49543600       1.71407905       2.74153047       0.61407115
H        1.89566000      -2.03466000       0.17875100       6.03475494      -6.93748406       1.60183379
H        2.91986100       1.44825100       0.83323600      -0.43325705      -0.79964564       0.78663255
H        3.39781600      -0.28052700       1.08461000       1.05487772      -1.78789001       1.66730417
H        3.40664100       0.63068700      -0.64170200      -0.85069216      -1.49295729       2.81944358
H        0.50189400       1.90625800      -0.15827400      -0.62084995      -1.17357560      -0.01019724
B        0.67215300      -0.70263100       3.38717700      -1.78489298       2.86019522       2.74543497
F        0.13370200      -1.47443700       2.28928700       1.58094541       0.35436931       1.24789923
F       -0.13421400       0.66787400       3.21335100       1.70466012      -2.40971716      -0.08828333
F        2.08787600      -0.33589900       3.49945400      -2.61680510      -1.27143478      -1.08020650
F        0.18297500      -1.16916900       4.75080900       1.17325882       0.52771949      -3.36087820
C        5.48434300       0.15291600       0.43163700      -3.38476207      -4.85467176       6.12391420
C        6.25604800      -0.14068200      -0.73805300       4.04458102       5.41450825      -3.99543500
N        7.66690500      -0.55135900      -0.42427600      -2.82523235      10.78332583      -0.43901506
C        8.12327500      -1.69877400      -0.37447900       1.75476736     -17.69518405       0.28485965
C        9.47308000      -1.81644500      -0.07566400      -2.11685938       1.83716454      -0.33652484
N        9.83512000      -0.48033600       0.02300900       0.80650226       1.59578825       1.12735634
C       11.18222700      -0.00665400       0.38272900       1.30133687       3.19561688      -0.10380653
C        8.73888900       0.35344900      -0.11655000      -1.16106008      -1.41804728      -0.27384322
H        6.03190700       0.51555300       1.36852000      -0.15121139      -0.77647272      -1.35623771
H        4.68117000       0.82865800       0.23046700       0.96491181       0.87135035      -0.20753500
H        4.83088400      -0.95793100       0.71486900       3.24801815       4.07504605      -0.46563813
H        6.38578800       0.90941000      -1.30620200       0.15417592      -2.22281501       1.17712437
H        5.88231000      -0.72070100      -1.54704100      -0.97324666      -1.93945023      -0.68907983
H        7.54087200      -2.79029400      -0.44744500       1.09142593       4.06921970      -0.04153134
H       10.08793800      -2.63625700       0.17138900       1.12619416      -1.37778596       0.23461230
H       11.16021900       1.10593200       0.83280100      -0.14369073      -3.00904932      -0.84911190
H       11.65337900      -0.73523100       1.06889100       0.00278530       0.21744981       0.11921580
H       11.71517200       0.05174100      -0.60437400       0.35546123      -0.06138858       0.72078138
H        8.67680600       1.42117100      -0.11832100       0.10543928       1.07973482      -0.00006380
B        8.85933800      -1.01771900       3.38227300      -1.01985698       1.62549657       3.35752116
F        8.51969500      -1.96825100       2.44550600      -0.30853151      -0.40447834      -1.13198162
F        8.07282800       0.30932300       3.11887900       1.67628762      -2.85364710       0.20887358
F       10.24758500      -0.79101300       3.45049400      -0.67092043       0.30149587      -0.50958648
F        8.45400800      -1.58344500       4.75959300       0.39700951       1.37984795      -2.71866661
48
Properties=species:S:1:pos:R:3:forces:R:3 energy=-41263.2431920159 pbc="F F F"
C       -2.21422400       0.44368000       0.44037100      -6.57068926       4.49314486      12.02274846
C       -1.22680900       0.40781500      -0.53408500      -8.64589054      -1.76014354     -10.62083473
N       -0.06583800      -0.16674500      -0.30620600       9.28094642      10.80540530       2.39686806
C        0.40898500      -1.30533000      -0.21736400       6.79437731      -9.94279066       1.12873675
C        1.83172500      -1.30927100       0.10358000      -3.95032848      -6.84320833      -0.57255851
N        2.21445300      -0.07122400       0.21387700      -6.68275412       3.63016505       0.64393966
C        3.44991200       0.42279200       0.58719500     -12.13019270       1.98338699      -5.16167400
C        1.12697800       0.76487300       0.03729700      -3.17578596      -7.15035793      -0.82135282
H       -1.63688600       1.03593300       1.37942300      -1.88288985      -2.39621778      -1.98398128
H       -3.02223200       1.31462000       0.28213400       1.77724912      -2.52820716      -0.53278929
H       -2.85501200      -0.46950000       0.93445900       2.57178031       2.08215399      -1.96348137
H       -1.30162800       1.36351200      -1.06087400       1.53880560       0.53557974      -0.15554046
H       -1.78865600      -0.33420400      -1.34848900       1.88101204       1.92213399       1.20823870
H       -0.13185800      -2.17840500      -0.42078200      -1.37131655      -2.01635521      -0.32123409
H        2.44475700      -2.21602300       0.31273400      -0.26058556       0.80101970      -0.21500307
H        3.34158500       1.46975100       0.91175500      -1.77249712      -0.98643924       1.47579867
H        3.91623400      -0.25902700       1.19722200      -5.65267230      -1.98661272       6.09470647
H        3.98127400       0.52838200      -0.45380900      -6.08124963      -2.58302917       0.15664930
H        1.02677700       1.74751500       0.02435800      -0.23431542       5.90714647       0.00955279
B        1.21064000      -0.61012600       3.49184800       2.17627480       2.10665926       4.65854145
F        0.90691200      -1.35570400       2.46173200      -0.31617684      -4.43368834      -4.15915480
F        0.49933100       0.55104900       3.23644000      -0.59934156       2.26293416       0.59678955
F        2.68872700      -0.26267700       3.52280800      -2.40233371      -0.87636779       0.03676056
F        0.73366400      -1.24120000       4.76169200       1.18013644       0.99822068      -1.88097019
C        5.22280300       0.67969200       0.39552200      12.89825695       7.73582782       4.81578260
C        6.15829100       0.58191800      -0.79635800      -8.86996610       4.76687880      -2.83156983
N        7.38313500       0.24083100      -0.51604300      10.26842332      -3.78627869       2.40278750
C        7.85665600      -1.04172600      -0.34773100       1.49957586      -4.51864472      -0.11010820
C        9.23606000      -1.06512800      -0.13309900      -3.22120347      -4.82764052      -0.09911709
N        9.56554900       0.18756200      -0.14189800       5.83096883       5.72999225       2.60917265
C       10.92107000       0.70373800       0.33058900       0.06025700      -6.55035225       1.76625514
C        8.51775800       0.99202300      -0.18621500      -3.29738840       0.96027399      -1.11301157
H        5.90124600       1.21167600       1.31865500      -1.49593620      -2.37258410      -2.43284237
H        4.41400900       1.55821300       0.19741800       8.78408618      -0.15820382       0.80305661
H        4.63439900      -0.25088900       0.65229800      12.91469582       1.20592986      -2.85971497
H        6.21589800       1.59153600      -1.26824600      -0.27647770      -0.30559875      -0.17022963
H        5.64349800      -0.08302700      -1.48389500       0.34070433      -0.71358216      -1.17763619
H        7.41756600      -2.01126200      -0.52725100      -1.62826407      -0.08126934      -0.12380409
H        9.91957800      -1.82759000       0.20416100       0.27942598      -0.81330214      -0.23919177
H       10.94759700       1.62201000       0.77745200      -0.77514215       3.72389216       1.74593846
H       11.34681500      -0.11048800       1.11386000      -1.15847820       2.19404985      -1.98909301
H       11.48182600       0.70691900      -0.54866500       2.15601977       0.05787707      -2.21319593
H        8.54065300       2.01495000      -0.17835500       0.13834646       3.65738934      -0.02767170
B        8.55147900      -0.44278000       3.37503100       1.52272948       0.98374098       2.06484026
F        8.14851600      -1.26659000       2.30864500       0.05352760      -0.82609875      -0.20786866
F        7.98447300       0.82611500       3.15105200      -0.69178436       0.46794543      -0.04151084
F        9.99223500      -0.20196400       3.38560700      -0.69701621      -0.71883251      -0.59346463
F        8.24109700      -0.93626000       4.72108100      -0.11169845       0.18835522      -2.00617798
48
Properties=species:S:1:pos:R:3:forces:R:3 energy=-41272.9704231555 pbc="F F F"
C       -2.83617600       0.59267000       0.52375900      -2.72471614      -1.53819736      -3.41768028
C       -1.87846200       0.39334000      -0.82825800      -2.80314964       1.55743253       7.81969972
N       -0.64762000      -0.08916500      -0.39023900       7.38218097       2.91155000       0.79441381
C       -0.18358300      -1.35352100      -0.32429600       3.20567292      -3.52592624       1.29410459
C        1.15696400      -1.42654600       0.14387700      -3.06602274       6.00912132      -0.94266370
N        1.66982200       0.04116400       0.12828400      -7.76117165      -5.89720753      -0.29243424
C        2.86917900       0.62912900       0.38306400       2.89330378     -11.61248822       0.05695572
C        0.58872700       0.77161900      -0.15304200      -6.39058649       2.25471635      -1.07652707
H       -2.26748500       0.95026900       1.33402900       1.37676532       0.94566314       1.53774779
H       -3.65790700       1.33704600       0.22847600       1.15519782      -1.06318863       0.63459644
H       -3.32902600      -0.38701100       0.84439200       0.72334578       1.23163294      -0.59864577
H       -1.82695900       1.34374100      -1.15632800       0.88907640       4.55159621      -2.09282860
H       -2.32877100      -0.17760800      -1.49238600      -2.85003196      -4.07195801      -4.35019266
H       -0.75919700      -2.26194600      -0.49005100      -0.61783813      -0.05719725      -0.15946974
H        1.79915800      -2.21935600       0.16386200       2.58924114      -2.95436735       0.31157986
H        2.85666700       1.48800900       0.79069200      -0.49121027       8.41834158       3.89775531
H        3.33531000      -0.22879400       1.15066000      -1.31761275       3.30205618      -1.64010976
H        3.38271800       0.56816200      -0.56416000      -0.85478948      -0.13667182      -0.55979955
H        0.44259100       1.89471300      -0.02912700       0.46237422      -1.50937430      -0.16938873
B        0.45804400      -0.57181800       3.43203100       5.01915588      -3.46649250       2.67495946
F        0.24132700      -1.56491700       2.45494600      -0.00544208       0.47895974      -0.63821418
F       -0.01962900       0.63543500       3.26867500      -1.49928831       2.75997746      -1.04300701
F        2.14864200      -0.38309300       3.41402800      -3.03703856      -0.27793746      -0.51854919
F        0.23997100      -1.12902800       4.72597000      -0.10525162       0.54478480      -1.18786282
C        5.26665100       0.64269900       0.10612000      -1.73237886      -1.80548833       4.02516781
C        6.10746500       0.19192500      -1.01642100       2.46024294       7.67693280      -4.64434104
N        7.58860600      -0.13152300      -0.73395200     -15.41014539       2.94327721      -3.21778526
C        7.90470700      -1.33553300      -0.72980700       7.30645863      -7.55253592       0.84780825
C        9.27825400      -1.26912000      -0.42162200      -6.76541964      -4.89434018      -0.87801341
N        9.62826000      -0.08290300      -0.21772900       0.97935074      10.52400837      -0.33129429
C       10.95647800       0.50931800      -0.05322000       3.92974678      -7.24468087       2.56294410
C        8.45806300       0.70862700      -0.50248800      10.58702413      11.62536601       3.27354495
H        5.92927100       1.01241200       0.97270500      -1.07512761      -0.18424313      -1.27195104
H        4.36073800       1.32977200      -0.22286000       5.61212681      -0.27807377       0.73880707
H        4.66652500      -0.27985900       0.47800600       2.77344256       1.75608494      -0.23373016
H        6.18477700       1.33596200      -1.52096700       0.66648580      -3.42922336       0.62374012
H        5.73552500      -0.33922800      -1.89980100      -0.21313699      -1.35135937       0.47425962
H        7.39880500      -2.20846600      -0.87931700      -2.47911414      -2.64039970      -0.55429439
H        9.84190600      -2.02740900      -0.29072200       5.38314593      -6.91544713       1.05842634
H       10.99885600       1.41839300       0.41622700      -0.60316449       3.57078332       1.65918503
H       11.53160200      -0.31042600       0.73652300      -1.89288527       2.96639552      -2.38071844
H       11.60971500       0.48023000      -0.92851400      -0.29974592       0.13487221      -0.95721038
H        8.64164600       1.91816400      -0.51347500      -1.58174425      -3.85097357      -0.06185542
B        8.69484100      -0.68652200       3.09501000      -2.07563155       0.98522502      -0.81626050
F        8.36633000      -1.62815600       1.95687200       0.28746357       0.60530744       0.94673402
F        7.98642100       0.57521500       2.76702800       0.00438431      -1.41751985       0.20920380
F       10.01272100      -0.37994100       3.03832900       2.30893161      -0.00177900      -0.30327884
F        8.35335700      -1.18102100       4.37455500      -0.34009918      -0.08019141      -1.08690200
48
Properties=species:S:1:pos:R:3:forces:R:3 energy=-41271.0650764644 pbc="F F F"
C       -2.89348400       0.49355300       0.53946200      -8.95203767       3.29787024       6.83733964
C       -2.12284800       0.36358900      -0.61871900       4.31334990      -0.00962140       0.86542735
N       -0.73420300      -0.01652200      -0.28203800      -3.12583867      -5.86795252      -1.41256979
C       -0.28563400      -1.35518400      -0.23326500       3.97663838       2.88210100       0.67153422
C        1.10238600      -1.29214000       0.10468300      -7.61170812     -16.75271583      -1.37970467
N        1.29017000      -0.11387500       0.10435800      19.74210959       9.75847347       5.08857869
C        2.73246600       0.46117100       0.53500400      -0.49656104      -9.65101789      -3.88622896
C        0.37597900       0.64191000      -0.10802300      -8.08602618      16.94422894      -1.70027616
H       -2.46193500       0.98280800       1.45957800       0.52205021      -0.96054796      -0.97101627
H       -3.82380800       1.24967900       0.37708500       2.63733265      -1.40189369      -0.39396916
H       -3.55936900      -0.33553800       0.85810700       1.41511047      -0.68677230      -0.00101470
H       -2.03080000       1.28782700      -1.01095100       0.45818094       4.39485514      -2.72477646
H       -2.46653700      -0.30700200      -1.28609300      -1.77228411      -3.27296101      -3.48641583
H       -0.82311800      -2.17129000      -0.24165100      -4.22611497      -5.28115154      -0.28694349
H        1.64865900      -2.19253500       0.31686000       1.21843801      -0.03503851       0.26982902
H        2.67696900       1.35483200       0.92256100      -0.77481541       6.68346773       2.98923638
H        3.26379700      -0.32843900       1.22494400      -2.26037294       1.88259670      -0.87969574
H        3.30885800       0.42138000      -0.43019700      -1.38327789       0.33485382       0.70316680
H        0.32435000       1.80176900      -0.09428400       0.79188169      -2.35636104       0.07639416
B        0.51827100      -0.69433500       3.41484100      -2.44631479       3.99303051       6.75457101
F        0.13827200      -1.58474600       2.53716900      -0.39719999      -2.35439897      -3.03882948
F       -0.28508500       0.59976700       3.33346000       1.27450470      -1.81043392      -0.78759111
F        1.84519600      -0.38899800       3.61663900       0.66094712      -0.22445361      -0.93351140
F       -0.02794000      -1.15155900       4.82969400       0.95049967       0.45291174      -2.37139172
C        5.29938000       0.44434700       0.33834800       9.95841840     -11.05350474       2.27588220
C        6.37029200       0.19034800      -0.96068000      -3.64295761       2.07793216       1.53060718
N        7.81333000      -0.25881900      -0.64592300     -23.14986664      -4.32583210      -6.13219013
C        8.07507500      -1.50213100      -0.49969900      -1.91180949      -6.63187713      -0.93434092
C        9.31603300      -1.55973600      -0.25402900      13.04172319      -0.20088218       4.05315905
N        9.82560200      -0.16162600      -0.04374700      -7.31151286      -3.19279171      -2.24978730
C       11.10688600       0.34605500       0.13655600       4.86581144      -0.86511081       1.93948381
C        8.61428000       0.53219400      -0.39454000      19.19009445      17.19270779       6.12225021
H        6.09818700       0.75031500       1.07018900      -1.57587559      -0.15559832       0.61045517
H        4.70808900       1.12364200       0.07041600      -5.41774805       7.34752192      -2.49272464
H        4.68772900      -0.58256100       0.61808900       3.24147531       3.21466685      -0.71902815
H        6.26333500       1.22968400      -1.39685900       1.56195286      -1.00462047      -0.13579888
H        5.82616500      -0.48074200      -1.62146000       0.64892486      -0.94934000      -0.72925036
H        7.47888000      -2.32775200      -0.61606600      -2.62989389      -2.17550493      -0.60910513
H       10.17066100      -2.29928700      -0.07007200      -2.06045982       0.39197143      -0.35270750
H       11.02563200       1.36810000       0.58650400       0.47057330      -0.58301495      -0.12253004
H       11.62609600      -0.44687800       0.84830600      -0.73263870       2.24138355      -1.03382864
H       11.69055600       0.32761500      -0.81815800      -0.07452866       0.48314326       0.21929851
H        8.67246000       1.67231500      -0.29247900      -0.96651167      -1.83664362      -0.50279023
B        8.78509000      -0.80419000       3.26480600       1.75369733       3.76544208       1.81499262
F        8.51545300      -1.69763200       2.29243800      -0.49262933      -1.17502920      -2.17111192
F        8.04403400       0.56671100       2.99240400       1.54398991      -2.65030780      -0.04366564
F       10.28394100      -0.54411400       3.30028900      -2.79372186      -0.13167812      -0.33345684
F        8.35253200      -1.26744800       4.50647800       0.03655417       0.25236005      -0.01062617
48
Properties=species:S:1:pos:R:3:forces:R:3 energy=-41262.2424910026 pbc="F F F"
C       -2.60327600       0.31198000       0.48493700      -6.05453634       5.13267947      12.96163424
C       -1.69179100       0.26674600      -0.45879300       2.24563824      -2.23201700     -16.42819935
N       -0.38323600      -0.27981200      -0.31237000       3.78267145       1.38301693       0.52351802
C        0.10941700      -1.59007100      -0.39643800       4.06505269       2.48316933       2.07573455
C        1.44869300      -1.41429600       0.13006200      -1.16764764      -9.12493882      -0.93573860
N        1.82245300      -0.11264500       0.14061200      -0.91569518      -4.33503910       1.24286207
C        3.07669100       0.29044100       0.51916600      -7.58120489      -1.71899873      -6.47151762
C        0.74742900       0.53468700      -0.07746900      -6.78948988       5.90440697      -0.68356587
H       -1.96154900       0.79944400       1.40743700      -2.03703255      -1.61613960      -1.49127248
H       -3.31352500       1.19136200       0.30935400       0.41887951      -1.69892173      -0.01435859
H       -3.14692800      -0.53900400       0.88919700       0.06458341      -0.65001268      -0.24036705
H       -1.70131400       1.25160700      -1.03079400       1.17175465      -0.74853335       0.88377998
H       -2.10052400      -0.46346300      -1.44148900       0.97462007       2.17233991       2.98725613
H       -0.43948800      -2.47362400      -0.38543600      -1.69764467      -2.04923315      -0.18897636
H        2.15117400      -2.35690500       0.12002400      -0.97796597       2.57145505       0.38054542
H        3.10643900       1.26136000       0.87644500      -1.45325186       2.72557856       1.60498103
H        3.56150900      -0.40101600       1.10901500      -3.85100718      -1.15792941       3.06369969
H        3.74154900       0.23874600      -0.54660000      -6.53514788      -1.93618380       1.14346252
H        0.84379800       1.61640500      -0.04587600      -1.09805864       0.57647599      -0.11344194
B        0.97217700      -0.80548300       3.57284200      -6.66626900       2.13525285      -6.99402324
F        0.45892000      -1.75233200       2.40832800       1.90165418       1.11814199       0.55125416
F        0.11303300       0.45556700       3.13751100       1.35449529      -1.53458364       0.36563615
F        2.19883200      -0.48292600       3.50464100       5.89299788       0.94047237      -0.64880656
F        0.47958100      -1.24973200       4.65330900      -1.93434245      -2.38786902       5.36681183
C        4.91779000       0.47306200       0.34241200      22.21574163      -8.15365882       7.47728480
C        5.98415800       0.10747900      -0.91621800       2.93936081      12.86997183      13.65141557
N        7.32557400      -0.18167200      -0.51620000      -0.85580091       3.96341571       0.40848692
C        7.59006200      -1.46974100      -0.27900200       5.51351998      -4.14258133      -0.21404564
C        8.99207900      -1.42420600      -0.07323800       2.48349271      -4.24428199       1.56845644
N        9.37448900      -0.11121300       0.02700700       8.82611717      -2.37101417       2.21360557
C       10.81448200       0.39929400       0.32434100       1.69587438      -7.66550967      -3.61870962
C        8.47900900       0.75012700      -0.20233100      -8.61092371     -13.97331413      -3.21372671
H        5.70763800       0.78154900       1.34722900      -2.17242709      -0.43455272      -3.64141849
H        4.25349000       1.12174400       0.16427700       0.70570260       7.90146330      -0.84904483
H        4.51521100      -0.57767800       0.77301000       7.33858847       2.72377943      -2.30683823
H        6.04844400       1.07932000      -1.19630900      -0.01100008       3.79740640      -3.19555719
H        5.66569900      -0.50822000      -1.44918400      -6.36171493     -11.95860753     -11.02127670
H        7.15204400      -2.45673800      -0.58506000      -0.78183061       1.43690607       0.30033895
H        9.87875300      -2.20218400       0.09465000      -2.75763684       1.60793151      -0.41615393
H       10.73028400       1.36865200       0.69716700       0.28252282       2.63845660       1.22066221
H       11.32881800      -0.47320000       0.95758900      -1.31587524       2.74431061      -0.56745483
H       11.34760000       0.23744600      -0.75016400      -1.09104599       1.40834698       2.69450470
H        8.40300900       1.63009800      -0.14704700      -1.16042575      15.83693295       0.96064463
B        8.58124400      -0.87336900       3.25870200       0.07116670       3.63912788       5.37303740
F        8.16641800      -1.58138200       2.23115600      -0.26454758      -3.78122841      -3.01150942
F        7.83907700       0.36113700       3.05562900       0.05045937       0.87553292       0.23346452
F        9.95478600      -0.55114800       3.39316900      -0.36581764      -0.71240670      -0.77853493
F        8.12081700      -1.32686400       4.62146000       0.54957550       0.03432090      -2.21629127
48
Properties=species:S:1:pos:R:3:forces:R:3 energy=-41270.7044679358 pbc="F F F"
C       -2.60058800       0.39721500       0.64913700       3.42945349       9.77309417      -1.92299761
C       -1.62104300       0.29340100      -0.59216600      -2.65687804      -0.09573922      -0.00843866
N       -0.32506700      -0.24222400      -0.20873000      -1.25576432       6.96415518      -0.68544004
C        0.12101000      -1.43202600      -0.25924500       7.11098309      -3.64558378       1.64878575
C        1.47171800      -1.41616600       0.19276400      -2.62481374      -8.00825962      -0.77116955
N        1.84875600      -0.20424600       0.23254400       1.53388645       9.15950363       2.23100191
C        3.25897900       0.35082700       0.61249700     -12.19314962      -4.08335207      -7.23855135
C        0.72560300       0.59737900       0.00132400       1.76817283       4.35658488       0.90962746
H       -1.94539600       0.88927800       1.47139300      -1.27658216      -1.61228969      -0.79069786
H       -3.26235200       1.34988700       0.32368200       0.70902218      -3.17896019       1.07023235
H       -3.06486000      -0.45329000       0.89033500      -2.66498984      -4.38848959       1.44448814
H       -1.50007000       1.31195700      -1.03782300       0.19357290      -0.67869785       0.06487001
H       -1.96884600      -0.44500500      -1.33120500      -0.59745422       0.30067925      -0.41832172
H       -0.27579700      -2.31638600      -0.25653100      -4.36638466      -6.12575953      -0.55240753
H        2.16618000      -2.24497600       0.33808900      -0.11327616      -0.33612555       0.04059721
H        3.22145200       1.29857700       0.92372500      -1.41685819       4.97282521       2.44991249
H        3.71225500      -0.29373600       1.23927700      -0.60214951      -2.59986004       3.81177472
H        3.75833800       0.41348100      -0.42530100      -7.43765528      -3.18033520       0.45947966
H        0.73690800       1.74544700      -0.00161300      -0.25940892      -2.05867832       0.04384089
B        0.92713100      -0.78055300       3.58750800       2.33799659       2.20407859      -0.34318667
F        0.57730800      -1.69143000       2.60565700       0.17266004      -1.12401857      -2.55307932
F        0.21251900       0.43175300       3.39987100       0.46282600       0.49821678      -0.74310452
F        2.43674900      -0.54061200       3.55406300      -2.54073043      -0.26632243      -0.33965224
F        0.52915000      -1.29613000       4.75741900      -0.21503848      -1.18499493       2.90968515
C        5.12972300       0.57922000       0.21674100      16.70985724      -6.54831378       6.46504599
C        6.04510300       0.33560300      -0.96284900       0.59095498      -1.32530418       1.49119940
N        7.38785000      -0.18812200      -0.60579700      -0.32135250      12.51390174       0.34348579
C        7.85260900      -1.33650200      -0.58940000       4.86123434     -14.53549908       0.29625174
C        9.27208900      -1.37638200      -0.29243600      -6.65126150       1.75277099      -1.23505813
N        9.61115300      -0.06634000      -0.13820000      -3.00838478      -0.30879240       0.06360233
C       10.87591800       0.40126600       0.13989600       7.19224254      -0.87047286      -0.40711187
C        8.54434100       0.75452300      -0.33628800      -4.04642871      -2.46658928      -0.42057874
H        5.82392700       0.96626900       1.15778700      -1.77211016      -1.00841618      -2.68426504
H        4.40136200       1.16632700       0.00563700       0.68367337       7.32458748      -1.05211974
H        4.71363500      -0.52677900       0.49090700       5.43910915       3.45276415      -1.31761672
H        6.16773500       1.25860200      -1.37826900       1.08064379       3.63718614      -2.36589219
H        5.66359400      -0.34076300      -1.68455400      -1.04597838      -1.22246611      -1.36274134
H        7.30549100      -2.38425100      -0.74031700       0.79586075       3.04852157       0.27952979
H        9.75978400      -2.24693600      -0.15171900       3.03964332      -3.42347588       0.79274029
H       10.90868800       1.33517800       0.69714100      -0.13409798       0.56885460       0.19000989
H       11.46165900      -0.41789400       0.70970700      -0.97959791       1.45882178      -0.53014818
H       11.38012400       0.46393100      -0.89068500       0.03921197       0.62235399       1.42650686
H        8.49184300       1.81198100      -0.34452100      -0.03466119       1.57114131       0.07276150
B        8.65218800      -0.77328700       3.21712800       1.36089942       2.46321148       1.20293577
F        8.31549500      -1.55721900       2.15666700      -0.16608947      -2.46443509      -1.74568626
F        7.83050900       0.39816400       2.96128300       0.56139119       1.00283248      -0.12578123
F       10.11990200      -0.49791200       3.14601600      -2.37820704      -0.24944336       0.24708139
F        8.22256900      -1.17584800       4.49764700       0.67600043      -0.62423342      -0.36202551
48
Properties=species:S:1:pos:R:3:forces:R:3 energy=-41280.312633832 pbc="F F F"
C       -3.04322100       0.35737200       0.33712600      -0.16210432       1.16492075       1.88445056
C       -2.15803700       0.15153700      -0.80074900       2.78657381       6.42182358      -2.44724023
N       -0.78177400      -0.24288300      -0.58692400       3.26583395       0.93262210       1.31102111
C       -0.31247600      -1.54502700      -0.45060800      -2.24157046      -2.21590154      -1.31575993
C        1.01571100      -1.51894100      -0.21327700       0.00630554      -0.71573268       0.71275115
N        1.39064000      -0.21577000       0.00343900      -1.03457151       2.24284885      -0.19081913
C        2.68186500       0.34260300       0.32160100       1.25992689      -2.28874335      -7.08593038
C        0.35157100       0.61218100      -0.30359900      -3.36596300      -2.13604041      -0.37240405
H       -2.38176000       0.81800500       1.08541500      -0.86904976      -0.17950999       0.96292775
H       -3.78237000       1.05460100      -0.01723200      -0.82226721       0.85555312       0.18012648
H       -3.56554600      -0.53412300       0.60728600      -0.23929985      -1.14842578       1.06880928
H       -1.99195100       1.21745400      -1.33305100      -0.75070080      -2.53312026       1.05601388
H       -2.55754400      -0.45926600      -1.49743600      -1.86593396      -3.15505731      -3.53208361
H       -1.02829000      -2.37797800      -0.67136800       0.88518204       0.46760783       0.32649044
H        1.74207000      -2.24900200      -0.04345600       1.34883916      -2.11700793       0.30289164
H        2.67609900       1.29535000       0.69764200      -0.46752447       3.23100231       1.99636437
H        3.19038500      -0.39620300       0.82585300       1.39866437      -1.86967144       2.64348511
H        3.26006000       0.37684200      -0.73387400      -1.68696403       0.16176130       2.40841050
H        0.30835900       1.65242700      -0.21109100      -0.02531172       2.35921299       0.26377318
B        0.46368100      -0.88337200       3.20907500      -1.37884912       3.57557030       4.46712742
F        0.06299600      -1.73034600       2.26115300      -0.39055635      -1.10706375      -2.05693089
F       -0.28631000       0.51593400       3.15080900       0.83539447      -2.22936505      -0.82339708
F        1.78568200      -0.54945600       3.35434600       1.21969220      -0.10241389      -1.21624598
F        0.03991300      -1.32799400       4.52587200      -0.31249510      -0.09625748      -0.74572170
C        5.32740700       0.59438000       0.35023600      -0.31376917       5.29054773       0.38156385
C        6.18026200       0.41212100      -0.78855300       1.04668062      -1.87654275      -8.47793794
N        7.58289600       0.01647000      -0.55206600       1.78692971       1.66879576       0.45686894
C        8.04152600      -1.28119300      -0.53906900       4.80040673       0.47583595       0.80806060
C        9.45235200      -1.31015200      -0.30396500      -3.89297111       4.14000899       0.03309738
N        9.81741300       0.12063500      -0.17466600      -3.37297899      -2.80982291      -0.24381164
C       11.14112700       0.56156300       0.18345800       2.68788671      -0.64940442       1.82412127
C        8.67471100       0.92137500      -0.30240300      -0.46094408      -3.77266397       0.07590993
H        5.98273200       1.06481200       1.08749400      -0.42439648      -0.26827043       1.19960861
H        4.57412400       1.36118600      -0.01730700       1.31000571      -0.78754942       1.16435631
H        4.82329800      -0.24891300       0.58212700      -1.23117295      -3.47844884       2.04209716
H        6.28336500       1.37802900      -1.30269100       0.10013284       0.42876206      -0.18582328
H        5.79211600      -0.33106600      -1.75242800       0.92618251       2.15656879       3.65784720
H        7.42109600      -2.10723400      -0.58723400      -2.05173921      -2.27628921      -0.32942337
H       10.08144400      -2.11160800      -0.02998000       1.37784821      -1.32618560       0.24324256
H       11.04493700       1.57450100       0.76089000       0.63081850      -1.72111720      -1.41405052
H       11.54365000      -0.30470400       0.97443200      -0.62148128       2.83169995      -2.50691953
H       11.63559000       0.56885000      -0.87469400       0.52915721       0.49799100       2.38320684
H        8.72346200       1.97608700      -0.31214600      -0.42291077       1.88909280      -0.06862129
B        8.84341700      -0.58491400       3.29943100      -3.84528867       1.71663622      -2.56258206
F        8.49049300      -1.37315000       2.04781300       0.40094756       0.54220866       1.58116751
F        8.00193400       0.73315500       3.00302100       1.47272679      -2.17787805       0.33113970
F       10.13922400      -0.31060700       3.29002900       3.00519263       0.77411653      -0.50412623
F        8.45102100      -1.08903100       4.50098000      -0.86490034      -0.77287441       0.32970827
48
Properties=species:S:1:pos:R:3:forces:R:3 energy=-41270.8332238343 pbc="F F F"
C       -2.53027700       0.42623700       0.93877700      -5.92766412       0.06458320      -0.69024178
C       -1.74426200       0.26931200      -0.42696300      -2.24489857       5.79754297       1.59001033
N       -0.39355500      -0.01734500      -0.04723400      -5.03371337      -7.30449106      -2.41479007
C       -0.15329100      -1.37906500      -0.00395300       8.45152688      -2.84025229       1.26814364
C        1.26839700      -1.41082000       0.28984100       2.79242864      -3.85630907       2.15748554
N        1.82685700      -0.06937100       0.51228700      -9.12904929      -6.77934406      -1.48513483
C        3.06258500       0.40546000       0.74717800      -1.41775211      -2.86877356       3.62585023
C        0.69460200       0.54620900       0.23905300       3.83325792      16.23143933       1.44042634
H       -1.98219800       1.00407900       1.76057200      -0.34647293      -1.79671985      -0.75342076
H       -3.39015600       1.13561400       0.63173700       1.41587324      -0.38121356       0.48504928
H       -3.31849500      -0.50401100       1.16213600       3.71190981       2.11127951       0.24004776
H       -1.67646300       1.34608300      -0.82865000      -0.52061180      -1.56826469      -0.17522635
H       -2.24107400      -0.41953700      -1.12218900       0.58077598      -0.42134915      -0.29545451
H       -0.47827900      -2.40114000      -0.10527800      -2.40235107       0.01428574      -0.46517880
H        2.10796100      -2.25159400       0.52972500      -3.02843373       1.75117853      -0.90488930
H        3.06522400       1.38431500       1.11067500      -0.46013623       2.27656297       1.82932980
H        3.56558400      -0.38752300       1.46253900      -2.97472829       2.22125993      -0.33598072
H        3.56403800       0.47745600      -0.15135800      -1.41236187      -1.25337747      -2.50398521
H        0.76876600       1.74979500       0.21579200      -0.63356718      -3.14394131       0.08839149
B        0.83764300      -0.75831400       3.75166000      -0.67601811       1.34615256       1.83286918
F        0.43077600      -1.68177600       2.81904500       0.39295706      -1.96735223      -2.25667642
F        0.13989300       0.41473300       3.43625500      -1.02407826       1.54516527      -0.58237255
F        2.16045600      -0.42109400       3.85952900       2.32940628      -0.13709032      -1.08722472
F        0.47215100      -1.22301100       5.01510400      -0.85295094      -0.65670201       1.16246619
C        5.21641400       0.39551700       0.40905400      -1.04578592       7.16910424       3.51477142
C        5.97745800       0.24934600      -0.76541000       7.43903896       8.76791090      -1.33426582
N        7.39060700      -0.00457800      -0.42563500       2.61244857      -2.71628139       1.00225501
C        7.85848400      -1.37971900      -0.26238400      -6.43699887      -0.75219074      -2.35360421
C        9.13416000      -1.32582400      -0.10551000       8.03705064      -5.37149069       1.93000909
N        9.57265400      -0.04285200      -0.02943000      -0.53162515       4.31688020       1.36192894
C       10.89519400       0.42220700       0.38822300      -0.03691318      -5.35289801       4.77427028
C        8.48415400       0.86121500      -0.06700200      -1.69407405      -7.26899643      -1.11258167
H        5.64410100       0.92157000       1.32325400       0.88338844      -0.93630903      -1.35270940
H        4.44226700       1.33408400       0.03048900       5.19859269      -2.23074231       1.53841677
H        4.55558100      -0.34467000       0.82734000       4.12046086      -1.04002330      -1.56519291
H        6.29809100       1.40540900      -1.30888300      -2.47194019      -3.87799957       1.41758807
H        5.71783700      -0.39402900      -1.48406300      -1.87665359      -3.66487713      -3.97416381
H        7.28129700      -2.32744300      -0.52588600       0.26947099       1.75496754       0.60359547
H        9.92089900      -2.21923700       0.09994100      -2.32390572       2.58962668      -0.77273984
H       10.91397700       1.38634300       0.77927400      -0.42266397       2.31467032       2.01622013
H       11.45423900      -0.44479800       0.98546700      -1.63976261       2.50656357      -0.56272645
H       11.39254000       0.47251400      -0.44853100       4.26241722       0.52682527      -6.47070689
H        8.43216600       1.86584200      -0.07708900       0.19739716       4.80905959      -0.03224038
B        8.47636700      -0.76265000       3.38195500       3.58029357       3.33703147       3.30965446
F        8.21124500      -1.58368600       2.39458700      -1.07615433      -2.57748526      -2.81642470
F        7.94560200       0.54651500       3.17879100      -0.13125070      -0.33740503      -0.18752383
F       10.04147200      -0.51411100       3.36210900      -1.99751266      -0.29176805      -0.29485521
F        8.23638300      -1.23132400       4.67820100      -0.36936524      -0.08521033      -0.41099543
48
Properties=species:S:1:pos:R:3:forces:R:3 energy=-41265.4652520019 pbc="F F F"
C       -2.57374900      -0.03046600       0.74036000      -3.55607015       0.85021112       1.83454875
C       -1.72617900      -0.20959600      -0.40279600      -0.02000929       0.84451410      -3.67754798
N       -0.37253800      -0.59862200      -0.16879200       1.07190731      -2.58880944       0.83932412
C        0.04572200      -1.91079600      -0.01630500       3.63008746      -1.61501525       0.68899006
C        1.41576000      -1.85475900       0.35667700      -1.83975240      -2.61441672      -0.86563788
N        1.79542800      -0.50197700       0.28631400       2.33115741      -6.19939016       3.43552064
C        3.20017700      -0.09731300       0.79850700     -15.17886193       6.07155601     -10.83813325
C        0.70997700       0.13439500       0.19722100      -5.17981402       7.69135612      -1.09869123
H       -1.95624700       0.41132800       1.45896300       1.04563059       0.45175561       2.74072514
H       -3.31182500       0.73631500       0.52091300      -0.41155406       0.47624108      -0.40580467
H       -3.18419000      -0.86699500       1.06703600       0.54745476      -0.81654475       0.47587729
H       -1.61148400       0.70427400      -0.93054700       0.02032394       2.20371053      -0.63418350
H       -2.16784700      -0.80360700      -1.16871300      -0.42717688      -1.82299342      -1.00149439
H       -0.51652700      -2.81911300      -0.09576700      -1.07735658      -0.51128200      -0.27149893
H        2.12456500      -2.69615400       0.51124000      -0.30191031       0.59534920      -0.07201648
H        3.14884600       0.96381600       1.08810300      -1.38269186      -1.56054941       1.76294841
H        3.60404400      -0.80100600       1.33576000      -4.07523639      -8.84534017       9.74385999
H        3.73609100      -0.05324100      -0.29797600      -8.00760496      -2.30376086      -0.14803974
H        0.73959000       1.20448800       0.22870900      -0.58704352       1.31071565      -0.07247987
B        0.81037400      -1.26276800       3.70082500       1.40670121       3.32015911       1.29356467
F        0.47280500      -2.03356700       2.66381300      -1.03585762      -2.88530848      -3.69247927
F        0.10980200      -0.00362900       3.49612200       0.24775377      -0.03287393       0.17910751
F        2.22029100      -1.02912900       3.61132600       0.22197309       0.31077877      -0.09186931
F        0.49238800      -1.82974400       4.90079900      -0.47876752      -0.51130179       1.35491521
C        4.91477700       0.49058400       0.43610000       5.66038649       4.57346652      11.12105297
C        5.71933600       0.33919700      -0.66835200       2.20111046      -3.67742368      -5.92723490
N        7.07935800      -0.12661100      -0.35951000      -2.15908668      -3.83360484      -0.59330537
C        7.45350100      -1.47297400      -0.24373700      10.46358366       7.69292988       2.52857636
C        8.97846600      -1.33934500      -0.01856600      -9.86189044      -4.39714319      -1.05306502
N        9.22224400      -0.09179700       0.16169100       3.20026099       5.17718069       0.70448022
C       10.67609500       0.39863400       0.42913200      -3.58481434       3.70744256      -3.57536744
C        8.09323000       0.66127100      -0.04511400       2.72418591       2.69458768       1.10735800
H        5.45007100       0.91933100       1.39102400       0.03387402      -0.51898951      -2.07567200
H        4.15308800       1.23396500       0.21566200       3.59014129       1.77868653      -0.84785861
H        4.17261000      -0.52931900       0.78309100      18.63161647       3.60402530      -3.27236624
H        5.88614500       1.29580500      -1.11611300      -0.03151085       1.18121623      -1.65491265
H        5.26496300      -0.50619200      -1.41340900       0.99684562       2.44027263       1.07605401
H        7.06687700      -2.31018900      -0.48129600      -4.65596322      -7.25891948      -2.29279632
H        9.60974900      -2.12478800       0.06149500       3.09338583      -3.25055455       0.49172506
H       10.54664900       1.45622300       0.85842800       0.76891327      -1.72693827      -0.07328966
H       11.01984000      -0.38308200       1.02023800       1.94605455      -1.71907335       2.18677399
H       11.06783900       0.45581600      -0.64096000       0.44365348      -0.08402423       1.48127571
H        8.18104400       1.71369100      -0.08938300      -0.47262281       1.77332861      -0.02906420
B        8.26527000      -0.72056700       3.33766300       1.17397030       1.73170411       3.47083400
F        7.96602600      -1.64998400       2.31110000      -0.13440112       0.45279231      -0.18162187
F        7.60949800       0.58869600       3.29123400       0.22257144      -1.23617386      -1.39831784
F        9.71280900      -0.44809300       3.38809100      -1.70193600      -0.67084189      -0.70845022
F        7.84909100      -1.18142300       4.67829200       0.50123363      -0.23331410      -1.96105250
48
Properties=species:S:1:pos:R:3:forces:R:3 energy=-41265.5742457701 pbc="F F F"
C       -2.40413900       0.19671500       0.43354800      -2.22487411       3.11219008       2.82488817
C       -1.44779800       0.17423300      -0.70368900      -4.55249461      -8.24178616      -4.48824180
N       -0.13450600      -0.44800200      -0.48410500      -3.15033717      12.99091390       0.44633525
C        0.15277800      -1.63789700      -0.46586800      12.38297572      -6.03634787       1.88989780
C        1.64904700      -1.69369200      -0.05236000      -7.34693745      -3.00014600      -1.32114882
N        2.02933100      -0.46297200      -0.01554100      -1.44164583       8.11617282       1.99368404
C        3.35716200       0.17325900       0.38645500     -11.76387502      -4.81573644      -7.70774963
C        0.89440500       0.40916800      -0.09225600       1.33803372      -2.41484660      -0.15334054
H       -1.79446700       0.68655200       1.25481100      -1.02398194      -1.12236740       0.22167392
H       -3.25119200       1.00135400       0.21544800       1.86889490      -2.07661762       0.21093552
H       -2.90602100      -0.76845100       0.69263100       0.80168440       0.59717289       0.14301333
H       -1.55134000       1.06248300      -1.20247400       1.37287719       3.65016023      -1.92413786
H       -1.96723100      -0.68079200      -1.52890500       1.76961003       3.17471547       2.43453426
H       -0.20930500      -2.52230500      -0.44669000      -4.97011604      -7.04323871      -0.46285393
H        2.28291000      -2.49054000       0.13364800       1.61626916      -2.55151738       0.30404565
H        3.20273000       1.17181200       0.69900900      -1.25643968       1.49168782       1.22194753
H        3.84961900      -0.58962500       0.95307100      -8.61462091      -0.63838148       3.32161989
H        3.90328500       0.11414800      -0.69316400      -5.47697387      -0.99275006       1.64546882
H        0.89948900       1.46913400      -0.12259200      -0.05263788       1.42681571      -0.25209956
B        1.14700800      -0.95936300       3.36332400     -12.46898006      -1.03762307       0.28961241
F        0.73231700      -1.89713500       2.31986700       0.70129544      -0.17427197      -0.40458184
F        0.20737400       0.23887100       3.03221800       1.49146930      -1.18242523       0.04460171
F        2.32237200      -0.65901900       3.35996200      10.79932440       2.82687031      -0.84012343
F        0.71900600      -1.41497200       4.63483200      -0.25298501      -0.30940732      -0.36857095
C        5.18725600       0.25689500       0.26474400      12.89086338       4.53667725       9.82059037
C        6.06281600       0.12416800      -0.81648500       1.90367788       4.95797262      -6.41163353
N        7.38769900      -0.27902600      -0.50193800       3.06726706      -3.89118335       0.83826056
C        7.86648300      -1.61144500      -0.29302900       1.40900425       1.07807828      -0.21450357
C        9.24431900      -1.54374100      -0.14967300      -4.29405530       1.02316673      -0.20546732
N        9.54345200      -0.18857000      -0.02154600      11.72721719      -8.00755727       2.39950270
C       10.94184300       0.28329800       0.27679600       1.05799732      -5.48498120      -0.48530537
C        8.53339200       0.41718300      -0.28629700     -11.01425608      17.02049130      -1.58176407
H        5.68085300       0.72651200       1.21580700       1.02377117      -1.15869303      -1.53527549
H        4.54721500       1.04000600       0.16178200       2.08384467       3.33253338      -0.19353079
H        4.66495400      -0.51758500       0.73241000      10.21458421      -1.49856993      -1.76015851
H        6.22528200       1.24928600      -1.38151900      -0.72196901      -3.69522840       1.56611917
H        5.64067100      -0.56397100      -1.55017500       0.08652985      -0.49855491      -0.99637883
H        7.25942800      -2.39990800      -0.58247900      -1.63655063      -2.50050440      -0.38980307
H        9.85470400      -2.32349200      -0.00715700       3.53660823      -3.59765442       0.80891385
H       10.84123700       1.17552800       0.73829400      -0.05299649       4.59084111       1.90964841
H       11.46494800      -0.46021300       1.00240100      -1.33024218       1.15850064      -1.04720198
H       11.49860400       0.26103600      -0.66685000       0.25244485       0.54242560      -0.32033076
H        8.45126000       1.63646800      -0.15287000       0.37635486      -3.75436371      -0.62748487
B        8.52609100      -0.76830900       3.20345800       1.96650676      -2.67836637       3.62184431
F        8.24264300      -1.83015300       2.21905400      -0.32847357       1.60627363       0.45813308
F        7.90048700       0.46798500       3.03380900      -0.00670556      -0.97373532      -0.33590260
F        9.98335600      -0.64806500       3.31433500      -1.89762926       0.24960302      -0.84788187
F        8.18807600      -1.47274300       4.62300900       0.12698194       1.88854671      -3.54556651
48
Properties=species:S:1:pos:R:3:forces:R:3 energy=-41271.3001380973 pbc="F F F"
C       -2.70985200       0.61849300       0.74688300      -6.01508553       3.06988776       0.41861168
C       -1.86933100       0.54309100      -0.51558200      -1.93247244      -7.84115537       2.87183631
N       -0.58784100       0.03324900      -0.10124500       6.57502052       1.38363304       0.04984238
C       -0.04754400      -1.29647100      -0.07582200      -7.99084896      -2.52957317      -1.89732355
C        1.21323400      -1.22493200       0.22793200       7.10558705      -2.10595424       1.53457583
N        1.71667600       0.12321900       0.27458900     -10.80134228      -1.59905742      -1.15010281
C        2.90542500       0.61302300       0.62450900      -0.18535142      -1.86195270      -2.66714857
C        0.59079100       0.93729300       0.08660200      -2.26330421     -12.79798280      -1.27900746
H       -2.16151300       1.17670600       1.61971400      -1.18710644      -1.85634557      -1.41069021
H       -3.60627800       1.32699700       0.37222500       2.30904532      -0.69427960       1.26764358
H       -3.45913100      -0.25179800       0.93120700       2.79570600       0.55555052       0.55278793
H       -1.77205400       1.41891100      -0.92275800       0.92751651       6.85503000      -3.39012350
H       -2.28041500      -0.20573200      -1.21786300      -0.26028076       0.36369305      -0.25461366
H       -0.77378300      -2.28606300      -0.27802900       2.53895983       3.42989970       0.80389347
H        1.92556200      -2.10462500       0.37618200      -0.91654672       1.42994767      -0.19061594
H        2.94486500       1.58552000       1.06182700      -1.38838035       0.95250066       1.21351835
H        3.40351300      -0.17437800       1.19917100      -4.14315526       0.62949821       1.49968866
H        3.55984600       0.63976300      -0.32901300      -4.29301709      -1.01064118       0.29513905
H        0.48440300       1.86240500       0.16097800      -0.78217559      10.52461216       0.88924829
B        0.53955100      -0.54268400       3.62573900       2.22345871       1.17650506       1.64496008
F        0.30885100      -1.42136700       2.56069900       0.07597018      -0.27573799      -0.15447891
F       -0.15925300       0.70114000       3.38854300       0.77499403      -1.29946218       0.31092414
F        2.07601300      -0.26437000       3.71561000      -2.71343115      -0.21888503      -0.69575845
F        0.28219700      -1.14438900       4.91214900      -0.26506130       0.70429064      -1.52385931
C        4.95640500       0.71025300       0.65505900       4.19991977       3.40902703      -5.32112203
C        5.77957600       0.50165100      -0.72935200       0.47658485       6.07114107       3.08234855
N        7.13581500       0.13716700      -0.34875100      -0.86074944       4.58457386      -0.22847870
C        7.44377300      -1.11231500      -0.18273100      11.26881450       1.07543663       1.79165880
C        8.89191900      -1.05808800       0.01471300      -0.88856735      -2.77929281       1.11365634
N        9.27139500       0.28525700       0.20179000       6.91767906      -4.63454660       0.87053048
C       10.71206700       0.83975000       0.46555400      -3.73124370      -8.01570956       5.94776124
C        8.23780900       0.97895400       0.01434100      -8.16719372       4.60174563      -1.86560241
H        5.57461700       1.13969200       1.34879400       2.90794939       0.68206777       2.86324258
H        4.18592000       1.55975000       0.33844600       6.26840758      -1.12121033       2.11337417
H        4.39473100      -0.16996000       0.89958500       5.60548303      -0.21486083       0.18732485
H        5.94134000       1.53114800      -1.19918100      -0.70998131      -1.07441085       0.34937126
H        5.41165900      -0.12291000      -1.47482700      -1.21956946      -2.31998287      -1.76887667
H        7.06610200      -1.99543500      -0.30385800      -4.30213625      -6.24337457      -1.18483900
H        9.61289300      -1.90334100       0.10851600      -0.44985049       0.63738791       0.16224129
H       10.71120600       1.73403000       0.95814400      -0.12065997       3.67600367       1.62550860
H       11.11178000      -0.06779500       1.15347000      -0.68916576       2.86593158      -1.06410657
H       11.16883700       0.69125500      -0.38308900       3.72409023       0.10133338      -6.55033669
H        8.26777200       2.02905800      -0.14012900      -0.49350174       1.62688382      -0.07628910
B        8.27512400      -0.38431500       3.43318600       3.78363170      -3.26740304       3.29780341
F        7.94645700      -1.33503400       2.44153500       0.18000922      -0.30679762      -1.05897621
F        7.72128300       0.78690600       3.21014800      -1.79333714       3.11151827      -0.65558049
F        9.78331700      -0.18943100       3.55570900      -2.18590868      -0.48342594      -0.81005540
F        7.92099600      -1.02933700       4.72321100       0.10932737       1.01648509      -1.53523572
48
Properties=species:S:1:pos:R:3:forces:R:3 energy=-41268.9544518051 pbc="F F F"
C       -3.10418200       0.30781000       0.58391700       3.68556894       2.17190832       3.18982580
C       -2.02427700       0.12830200      -0.56168700     -21.70876192       8.87772189      -8.74841867
N       -0.89415700      -0.30720200      -0.44028100      15.41602751       2.71328503       3.15021698
C       -0.45959200      -1.46087300      -0.24947800       8.94156904     -13.61614401       2.24626657
C        1.01401500      -1.53539000       0.11892500      -9.44457131       4.54578502      -1.08898745
N        1.29711100      -0.15400900       0.25874800       1.23415906      -4.98452428       0.17468865
C        2.65410500       0.20615900       0.57727200      -2.80547323       8.21336630     -10.85345037
C        0.19480400       0.52336400      -0.08949200      -0.55974953       2.93186546      -0.01774717
H       -2.41947600       0.82114200       1.43840700      -2.11277709      -1.73953632      -1.47613569
H       -3.84524800       1.10437600       0.36058400       0.02293221      -0.81349823      -0.52184208
H       -3.53045200      -0.64664900       0.93897400      -0.03863078       0.24971968      -0.05449996
H       -2.03132100       1.21159800      -1.16393300       0.43350724      -2.84813126       2.07868104
H       -2.58805100      -0.48744900      -1.42484900       1.13588894       0.90460005       1.96774168
H       -0.90059100      -2.46102500      -0.29283600      -1.25879295       0.46039506      -0.49360714
H        1.53552200      -2.40208900       0.08396900       3.02859202      -3.23647257       0.43761973
H        2.67869000       1.23093200       0.85774800      -0.09727678       1.43875617       1.60540444
H        3.19089600      -0.37171700       1.09118500       4.33994853      -6.43273902       6.13983443
H        3.30569800       0.35869700      -0.50106300      -3.27616121      -1.31441904       2.96833183
H        0.18483000       1.57416900      -0.04815700      -0.53852574       2.02163625      -0.07587446
B        0.36332000      -0.85709600       3.43399800       1.29950706       2.64586344       3.66347994
F       -0.05793100      -1.71251900       2.46346100       0.16227168      -1.19568272      -1.92801511
F       -0.30279000       0.46173700       3.22243300       1.09837917      -1.78290052       0.10084739
F        1.86710700      -0.63206300       3.54275600      -3.09357529      -0.55135417      -0.86643812
F       -0.06514000      -1.42773400       4.73034900       0.57730884       0.94141966      -1.68498629
C        5.29583000       0.47960600       0.23691000      -4.43546226      -2.65167380       0.83491800
C        5.96966300       0.29694300      -1.09728100       8.28880877       3.59387742      10.94724342
N        7.61268600      -0.14847900      -0.66435800      -8.26982899       0.52134453      -2.28664647
C        7.96976500      -1.45679700      -0.61462000      -5.24864066      -3.22746077      -0.97760095
C        9.24018100      -1.41380100      -0.29096000       1.49017461     -19.40215953       0.76490951
N        9.66654800      -0.32304800      -0.19584000       6.12619803      26.01237113       2.15305570
C       10.89435700       0.53499300       0.16404300       6.03954552     -22.16108468      -6.47710133
C        8.62544400       0.66983700      -0.38134400       0.27701251      -0.67662751       0.00775002
H        5.79414000       0.91117300       1.09982600       1.53244593      -0.23619320       0.22032595
H        4.50450200       1.24653900       0.02436300       0.91130253      -0.46113889       0.30461530
H        4.69297600      -0.55493900       0.56232800       3.14318731       3.41860261      -0.89401632
H        6.32495300       1.18399000      -1.40317200       0.48118365       4.72348201      -2.95831591
H        5.74368400      -0.39029200      -1.68699300      -3.23881284      -7.71292072      -7.13680574
H        7.28649900      -2.33207300      -0.67550000       0.41131212       0.82262632      -0.17332336
H       10.03242000      -2.18425000      -0.21023400      -0.97472762      -0.69068659       0.14110155
H       10.96959000       1.35331600       0.55905900      -0.58748490      11.89109475       5.96031378
H       11.52447300      -0.47676200       0.81610200      -2.09743143       4.68962425      -1.21529261
H       11.57216000       0.35099200      -0.78411100      -1.39662782       1.69855194       1.55494632
H        8.54310600       1.74483100      -0.55946200       0.93290957       0.15253869       0.29401856
B        8.74450000      -0.74920900       3.12307500      -1.09475685      -1.49022831       0.09315606
F        8.43092300      -1.76697300       2.12383700      -0.23395536      -0.14279578      -0.84822605
F        8.03940700       0.38811700       2.91946300      -1.45071200       2.64783900      -1.65632025
F       10.06978300      -0.55163200       3.07912200       3.29944296       0.54402401      -0.35326967
F        8.32447900      -1.20665100       4.34989000      -0.35318706      -1.46562320       1.77325868
48
Properties=species:S:1:pos:R:3:forces:R:3 energy=-41270.9826437491 pbc="F F F"
C       -2.99813700       0.67939700       0.90401200       7.91408759      -5.34596578       7.21111344
C       -1.91372300       0.47550100      -0.15810100      -9.02748358       2.89814849      -6.35898794
N       -0.66046800      -0.03049100      -0.00977200     -11.71033834      -0.85822911      -2.15643162
C       -0.22841900      -1.17034800       0.17669300      -1.76598622     -19.14219345      -0.04060372
C        1.06760000      -1.22063200       0.46726500       0.11322910      -3.19583683       1.19102401
N        1.37387900       0.07537500       0.55955400       0.83950207      -0.64339222       0.49710661
C        2.68491500       0.39951900       0.84977800       1.89051597       8.58863677       0.90580798
C        0.24738900       0.69075700       0.22055600      14.62488138      24.14694043       3.85509709
H       -2.33607900       1.05532700       1.80214900      -1.53828645      -0.73330093      -1.12313470
H       -3.59750000       1.42653500       0.80498800      -5.22189857       5.86088999      -2.11008933
H       -3.49238500      -0.22738200       1.35894600       0.40073772       0.64730783      -1.26561035
H       -1.84010300       1.43612400      -0.79925700       0.29084829      -1.08110271       1.52589542
H       -2.46500500      -0.14942200      -0.89152000       0.60043631      -0.57290898      -0.28119865
H       -0.83852100      -2.13283500       0.11030400       0.48360771       1.81372408      -0.11505728
H        1.76094600      -2.00120400       0.65168900       0.69719417      -1.23557824       0.25690131
H        2.74665200       1.50882600       1.45692500      -0.49761730      -3.55024253      -1.95128308
H        3.22437300      -0.26561400       1.51684800      -0.98161062      -0.64094060       0.43595271
H        3.35819200       0.62105400      -0.12400100      -6.23567129      -1.74481757       2.51100638
H        0.41251500       2.04231000       0.32414600      -1.62582960      -5.67172643      -0.73594009
B        0.48280300      -0.45192100       3.82759700       1.04913266      -8.53502836       2.91988838
F        0.07165100      -1.50032600       2.81263100       0.39427677       0.62226489       0.22725487
F       -0.16530500       0.59960500       3.60977300      -3.81558967       6.60071357      -1.41840456
F        1.82627500      -0.39389200       3.82482600       2.57965871       0.59069444      -0.56642858
F        0.13042300      -1.07762100       5.17561900      -0.02170101       0.80942681      -1.91749137
C        4.98211900       0.17512700       0.28496100       1.08700888      -0.97727969      -3.05616822
C        5.94545400       0.02818700      -1.09938400      -3.79533615      -1.23384319       5.79226114
N        7.21309100      -0.36747400      -0.60148100       0.39557867      -1.99511338      -1.31809590
C        7.55232800      -1.77091000      -0.55573800       9.24827701       8.24579064       1.39449166
C        8.98605900      -1.63364600      -0.37083500      -2.77087695      -3.26653385       1.40171458
N        9.35428800      -0.30966200      -0.10134900       2.62384153      -2.23300685      -1.13762223
C       10.83037100       0.06083600       0.08081200      -4.23568932       0.21397099       2.41820526
C        8.30528100       0.46907300      -0.44439500      -1.18838043       1.65209919       0.40743836
H        5.53150200       0.61213900       1.11518200       0.95326464      -0.41169678       0.75223481
H        4.25285000       1.08038900      -0.03481300       5.20628804      -1.63726639       0.62558450
H        4.35292600      -0.84840700       0.60194300       3.32206699       3.30455148      -1.63072074
H        5.84279000       0.99672100      -1.40407800       0.69330839       3.62009389      -2.20755567
H        5.49123200      -0.69760200      -1.72815900      -0.44773789      -1.06216316      -1.36938436
H        6.99029500      -2.55542200      -0.71837900      -4.20958052      -5.09084502      -1.10546882
H        9.63019700      -2.45642700      -0.03325800       0.33751639       0.04452301      -0.37326629
H       10.70923100       1.01321400       0.52723300       0.40857922       1.95004031       1.26586547
H       11.15977000      -0.62427100       0.84177200       1.19488789      -0.89996337       0.29101518
H       11.30653400       0.23816900      -0.81663900       1.97100622      -0.50552667      -3.15099994
H        8.26941000       1.54275800      -0.30931200      -0.22578322       0.57534374      -0.01653990
B        8.29438000      -1.08013600       3.07207100       0.49745510       3.30128014       3.69271647
F        8.02181200      -1.95472200       2.06880100      -0.36165321      -0.99161080      -0.82651701
F        7.55960300       0.23716600       2.84915300       0.94625036      -2.08760680      -0.17330516
F        9.69934400      -0.77828000       3.22503600      -0.67725042      -0.16808758      -1.13085361
F        7.96178700      -1.50289800       4.45262600      -0.39840397       0.02935275      -2.04907306
48
Properties=species:S:1:pos:R:3:forces:R:3 energy=-41274.3371530818 pbc="F F F"
C       -2.79037300       0.39330800       0.30210900      -1.74273442       4.71403123      -1.25307065
C       -1.94586500       0.14283400      -0.96775400      -3.21971495       7.91588279       1.18330885
N       -0.65879800      -0.14876500      -0.64130800       9.06514203      -4.91059514       1.20219256
C       -0.14999700      -1.55376100      -0.54560600      -0.60449241       6.18045296      -0.22053111
C        1.10564400      -1.42394800      -0.10589500       3.10676120      -9.06376508       1.17925378
N        1.47955900      -0.14978600      -0.17000900      12.43227535      -1.21106377       3.19721274
C        2.93565900       0.42899200       0.15500300      -3.29108673      -5.87658690      -5.61101110
C        0.53291100       0.59054900      -0.39480800     -12.45755503       8.30814143      -2.80791665
H       -2.27267500       0.89135800       1.14565100       0.39042226      -0.72386716      -0.30999933
H       -3.60777400       1.14670900      -0.00559200       1.31176115      -0.92377710       0.38235105
H       -3.36473100      -0.39915500       0.57453600      -1.60156120      -3.78287409       1.70937573
H       -1.92681300       1.23620900      -1.36876300      -0.00139603      -2.11484545      -0.51156997
H       -2.30251000      -0.54431100      -1.64816500      -1.69047084      -2.22777587      -2.31572869
H       -0.79837200      -2.30827800      -0.61891300      -3.18103907      -4.12647838      -0.43124433
H        1.83849700      -2.35432100       0.03425900      -1.57442301       2.77236336      -0.18843796
H        2.85153400       1.38071800       0.50922000      -0.91073323       3.47292110       2.17206162
H        3.36907700      -0.38835100       0.72358700      -1.18595592       0.18702155       0.81864733
H        3.46539100       0.44426300      -0.87063800      -1.28444041      -0.09758185       1.38105126
H        0.47363200       1.67762900      -0.37053700       0.39103284       0.35834769      -0.04026554
B        0.54189800      -0.83045300       3.16633000       1.83183476       2.92754169       0.70619004
F        0.24199900      -1.68924200       2.06104200       0.65051898       0.37130711      -0.07772013
F       -0.15812000       0.47075500       3.04761600       1.01325846      -1.27656827      -0.98218699
F        2.06923400      -0.53342100       3.23516900      -3.27578731      -0.81759418      -0.71961827
F        0.09737500      -1.31628900       4.37392400       0.15234195      -1.02608773       0.33832875
C        5.23572500       0.60054400       0.57854900       3.22025978       9.87065900       6.40123648
C        6.15009300       0.53103300      -0.48621400       1.89432402       4.27938865      -5.47346535
N        7.50618500       0.07297600      -0.22749500      -4.47814909      14.45210285       0.46149300
C        7.80385700      -1.07280000      -0.32197900      10.31287492     -20.38625366       1.04872990
C        9.29860200      -1.12349100       0.07546700      -7.45319679     -11.16502000      -2.26805052
N        9.62119100       0.05166400       0.22293900       7.72696187       9.22265622       1.94180645
C       11.01812000       0.60341100       0.54844500      -2.36276701       4.50979532      -4.45197408
C        8.60596600       0.85994700       0.03617700      -3.56430717       7.31044696       0.06396093
H        5.87091200       1.13316400       1.50109300      -2.04471803      -1.98650491      -2.17723408
H        4.50764200       1.42129700       0.32814900       1.72179627      -0.70274332       0.61512051
H        4.70065400      -0.15646400       0.93000400      -0.57169443      -4.54408886       1.90394732
H        6.20441900       1.52288500      -1.13772300       0.29564832      -1.55742938       2.17402855
H        5.79152100      -0.07802500      -1.23187900      -1.10237843      -3.01127941      -2.71290814
H        7.39807300      -2.12599600      -0.33910000      -1.06319747       1.89252999      -0.33059456
H        9.91726600      -1.94702000       0.33190200       0.77324971      -1.38915294      -0.00146016
H       10.80457900       1.65653000       0.97547600       0.90300789      -1.91345483      -0.21915730
H       11.46839800      -0.08940500       1.13787200       2.08745910      -2.68115992       3.25756162
H       11.59547600       0.69230200      -0.45885900      -0.97911898      -0.06120175       1.67341111
H        8.57351800       1.98003700       0.00717900       0.21142006      -1.21808778       0.16328986
B        8.70590600      -0.54507400       3.52669400      -3.10999628       2.30761892       2.76042768
F        8.30900200      -1.38888600       2.45975400       0.34965096       0.03826802       0.06326124
F        7.86452800       0.79955400       3.37989500       1.64913389      -2.57362812      -0.35779664
F       10.04500500      -0.21478700       3.52110000       0.41177927      -0.13265308      -0.43774131
F        8.28651800      -1.02639100       4.88823500       0.82578160       0.43878901      -2.92898155
48
Properties=species:S:1:pos:R:3:forces:R:3 energy=-41273.4713854556 pbc="F F F"
C       -2.91276000       0.61264100       0.28767200      -2.44780935      -1.88130606       7.99418174
C       -2.05762000       0.31608400      -0.85395700       2.12430965       7.67874872      -1.87454381
N       -0.65966200      -0.00988700      -0.72942700       3.05916430      -2.04377395       2.70656191
C       -0.26201000      -1.33820300      -0.44408700      12.96655537      12.22343797       3.15404557
C        1.19147100      -1.23444300      -0.30605600      -7.62059794       2.87441544      -0.67075744
N        1.57881000       0.09587200      -0.12834500      -2.90079256      -4.05647305      -0.69618200
C        2.88207000       0.54373200       0.20074500      -0.33947330      -3.20382719       0.55343704
C        0.45232100       0.74024300      -0.30300000      -4.00351263       9.62000900      -0.71227020
H       -2.28451100       1.02695000       1.27088400      -1.64475496      -1.31764208      -3.10124841
H       -3.69422200       1.41830200       0.07574900       0.80818068      -1.40155288      -0.01290230
H       -3.43156500      -0.46673900       0.68086700       1.32219300       3.90625886      -1.14304752
H       -1.96074500       1.34676700      -1.37983800      -0.46362747      -1.58969438       0.10736098
H       -2.41599100      -0.33167000      -1.54117500      -2.11550272      -3.26198379      -3.08908875
H       -0.73394600      -2.05738600      -0.67145200      -8.42889505     -12.52418921      -3.73257743
H        1.77551700      -1.97069600      -0.11972700       5.38261498      -6.36101040       1.52212955
H        2.85059600       1.49877000       0.65070000      -0.42718557       1.92155569       1.14443318
H        3.24973900      -0.28453700       1.01353900      -1.54566980       2.71303766      -2.17065769
H        3.43228900       0.64957400      -0.77799400      -1.91200157      -1.17405926       0.67367032
H        0.46433200       1.93094800      -0.25339900      -0.41162989      -3.00707072      -0.23995266
B        0.54369000      -0.57813400       3.31985600       2.39617907      -0.86043894      -2.09767896
F        0.24026400      -1.60668200       2.14713600       0.41555387       1.57217391       1.11775903
F       -0.21246000       0.55670800       3.06431400       0.20601215       0.20083814      -0.43825920
F        2.03521200      -0.38430100       3.25031000      -2.38347182       0.04554798      -0.67230514
F        0.27772500      -1.13659100       4.52482600      -0.62469643      -0.79536495       0.87929598
C        5.16440600       0.53764500       0.17934400       3.04209370      -5.76899160       2.48558733
C        6.09278300       0.24010600      -0.98614800      -5.23606298       4.04517146      -7.56389417
N        7.37465800      -0.16435400      -0.70813400       4.78694050       0.86299802       0.82086856
C        7.94468700      -1.38127100      -0.60519400     -13.72706056      -5.94061802      -3.83847054
C        9.13031600      -1.46895800      -0.33105900       8.71508343       4.05430628       3.56496039
N        9.47545800      -0.09105200      -0.14028200       3.45182110      -1.76193651       0.22687202
C       10.76532700       0.43842000       0.07925100       7.17874510      -1.05152773       0.11558961
C        8.47192100       0.65189700      -0.47818500      -4.73620214       6.16588424      -0.48504489
H        5.67417500       1.00254400       0.99026400       1.50072489      -0.02370264       1.53037623
H        4.45585000       1.22838500      -0.05514400      -0.18955184       2.42857112      -0.91384607
H        4.61668400      -0.51059800       0.54022000       3.44903588       3.59368241      -1.09172456
H        6.27844000       1.36535500      -1.62170600      -0.89479241      -3.88506382       2.01961344
H        5.56063400      -0.51529700      -1.85441700       1.78335440       2.29478062       2.97120684
H        7.33965900      -2.24199300      -0.86268300      -0.58985191      -0.41752447       0.08720638
H        9.75389100      -2.23017800      -0.15717400       3.27725189      -3.76279405       0.74802126
H       10.86980700       1.50338500       0.44863000      -0.83421473      -1.26998955       0.37759776
H       11.34798000      -0.39017600       0.70483100      -1.36509764       2.48618631      -0.51971636
H       11.40962800       0.43712200      -0.88454600      -1.29348011       0.03671972       0.84362360
H        8.43295500       1.77911500      -0.52478200       0.16987410      -1.30515445       0.17042907
B        8.63252000      -0.58313100       3.19171300      -2.11745228      -1.09408205      -2.31979356
F        8.27511800      -1.60673800       1.94803700       0.52437044       0.99703686       1.93254410
F        7.79600000       0.54955900       2.76166700       1.65589318      -1.28710606       1.04319255
F       10.02203000      -0.42700700       3.00914600      -1.13513626       0.24535840       0.77289147
F        8.15134900      -1.18018100       4.41974200       1.19027935       1.07636597      -2.17760780
48
Properties=species:S:1:pos:R:3:forces:R:3 energy=-41273.7599352347 pbc="F F F"
C       -2.72271700       0.59637000       0.55407300      -2.33816105       1.52364787      -0.11560307
C       -1.78224400       0.42089900      -0.63235800     -10.10860105       2.78429845      -4.18762694
N       -0.56185300       0.14636500      -0.29223200      12.99792624      -6.47687135       2.52026858
C       -0.01525200      -1.16712500      -0.20167000      -2.20129713      -4.64215108       0.13233613
C        1.34098600      -1.21475300       0.14170300      -4.73141255      -9.99558096      -0.47705545
N        1.71795300      -0.03615700       0.05788300       2.64015631      14.25016090       0.65098900
C        3.12230500       0.52696900       0.48652600     -10.33746565       2.28585754      -0.80287710
C        0.61378700       0.83567600      -0.13404300       0.56090978       6.27765997       0.49805480
H       -2.07443100       0.89563200       1.36986900      -0.27902228       0.27760262       1.10342564
H       -3.53807500       1.36752600       0.30380000       1.54758958      -0.87037177       0.56192797
H       -3.26826700      -0.31190600       0.74494500      -0.10706950      -0.98073997       0.69212048
H       -1.78286700       1.40933400      -1.11351500      -0.03546435       0.09836337      -0.81555131
H       -2.20857500      -0.36361000      -1.32381300       0.48000590       0.77033249       0.20791834
H       -0.60895900      -2.08742700      -0.36032800      -0.23598456       0.68764473       0.06815041
H        2.06315800      -2.03974500       0.15389300      -0.40857605      -0.34683664       0.28760878
H        2.98858900       1.58536200       0.86935600      -0.72131545      -1.44432312       0.41698950
H        3.39066600      -0.22819800       1.13437400      -0.51854373      -1.33881816       2.52823685
H        3.61877900       0.61587800      -0.39696900      -0.58261251      -1.47743888      -4.26153365
H        0.53513400       2.01259000      -0.02544300       0.97511986      -2.86751386      -0.23208816
B        0.72279300      -0.64879000       3.48131100       1.79896165       3.93958870      -0.82589551
F        0.42504500      -1.48871000       2.37830900       0.23280246      -0.44852557       0.31394609
F       -0.01420700       0.62467600       3.27660000       0.40386856      -0.68796292      -0.82149976
F        2.17291700      -0.26679900       3.44498900      -1.71360799      -0.86549116      -0.58598168
F        0.40659300      -0.96460400       4.75800700      -0.46717589      -1.83935530       1.15188723
C        5.24603600       0.40374500       0.65693700       1.56218601       8.26941010      -5.39986842
C        6.09760800       0.39543500      -0.65542400      -8.00141046      -4.43489131       0.23235386
N        7.31613900      -0.06326500      -0.37702200      10.47632335      -5.10638198       0.40398125
C        7.87885300      -1.42145700      -0.48436200       0.02334242       1.84783604       1.18890530
C        9.17272200      -1.37320100       0.04429200      -5.92017951       0.38750709      -0.74308384
N        9.51515200      -0.07766600       0.08398900       3.23557490       2.26174001       0.95213141
C       10.85997300       0.47324600       0.39576900       3.38027694      -5.74017681      -0.78635567
C        8.45375400       0.66864300      -0.14357700      -2.93600279       4.09871921      -0.01048740
H        5.85415200       0.91794400       1.30519400       1.85216111       0.54559022       3.56656928
H        4.41385800       1.31636200       0.25738400       7.01717625      -2.01121659       3.32286876
H        4.63078700      -0.38140000       0.85456100       1.72948092      -3.42361679       1.04719603
H        6.16038000       1.24097700      -1.18412200       0.06747733       5.36219693      -2.16619153
H        5.60262700      -0.31546700      -1.36490000       0.26714524       0.11880213       0.17209708
H        7.24133700      -2.23728000      -0.41852400      -1.84420563      -2.27395357      -0.27717166
H        9.84649200      -2.08513200       0.11419700       4.31923396      -4.83429524       0.60585922
H       10.82964100       1.38396900       0.91410300      -0.32328078       2.42815504       0.93976600
H       11.32629800      -0.37046300       1.14450400      -1.02950875       2.54821722      -1.89257923
H       11.47947000       0.46762200      -0.60739100      -1.09213036       0.40811626       2.14699806
H        8.50535600       1.74610200      -0.09633800      -0.20717403       0.80572936      -0.01284563
B        8.59877100      -0.66903400       3.44885700       2.12149324       0.93201929      -0.48415702
F        8.29248200      -1.69077000       2.30434000       1.20147233       2.02407801       1.21860256
F        7.93199200       0.56656300       3.24972400       0.14208363      -0.53837188      -1.13892720
F       10.10712100      -0.32792700       3.51166200      -2.91693408      -1.19095043      -0.91106205
F        8.19993700      -1.13883100       4.67776600       0.00542328      -1.07056986       0.00670442
48
Properties=species:S:1:pos:R:3:forces:R:3 energy=-41271.263540821 pbc="F F F"
C       -2.81730300       0.45290600       0.41130100       4.58883845      -2.03523553       1.52739886
C       -1.76997400       0.22462200      -0.77204700      -7.59622869       2.99640626      -2.97589803
N       -0.49725300      -0.21368900      -0.57047700       7.18003125       1.04964416       2.68273082
C        0.05114600      -1.51816200      -0.33625200     -16.84784480      -2.40575734      -5.10173229
C        1.22596500      -1.49666900      -0.05406200      14.00953880       2.43368156       2.96969610
N        1.72226000      -0.12002400      -0.07619300      -4.62404658      -0.39701568       0.94935871
C        3.08261000       0.29857800       0.30344800      -6.02856132      -1.01583634      -1.54815079
C        0.56135600       0.71211000      -0.22869800       0.94876857      -7.77964346       0.04812670
H       -2.03706400       0.83321000       1.17501900      -2.23584382      -0.65030989      -0.07463894
H       -3.55304800       1.19363300       0.20054400      -0.97529358       0.92050532      -0.57844852
H       -3.24147800      -0.55167200       0.65507700       0.03746476       0.94207533       0.48781502
H       -1.75913400       1.23225400      -1.26301800       0.66553828      -0.44180315       0.09828646
H       -2.22937600      -0.40672200      -1.54284700      -0.30724628      -0.53373810      -0.20798808
H       -0.67602600      -2.36600400      -0.62798300       1.54075342       1.24753914       0.89476721
H        1.98671400      -2.23270900      -0.03200600       0.86233572      -1.48137873       0.42406877
H        2.91282700       1.35888500       0.71677200       0.29984811      -1.50427989      -0.15579196
H        3.56125300      -0.45387600       1.05085200      -3.26217227       1.47325889      -0.35622427
H        3.61874900       0.29753500      -0.72340600      -3.65870459      -1.14099334       1.46697714
H        0.61440200       1.71312900      -0.28776700      -0.23155712       4.97080014      -0.42480151
B        0.60304200      -0.77259500       3.29729400       3.80001578      -0.04491734      -0.90374333
F        0.41146100      -1.66103700       2.17594700      -0.25989113       0.06419363       0.29263354
F        0.05629000       0.45087900       3.12922500      -1.43309214       1.80391111      -0.99070484
F        2.09909200      -0.54288300       3.32520900      -0.53722346      -0.10376816      -0.75301844
F        0.36085000      -1.28375700       4.50882700      -1.33524270      -1.68697042       1.92470281
C        5.17036900       0.48882200       0.08914800      -7.49601740       7.56495974      16.93202341
C        5.89371200       0.44485300      -0.92116200      10.78830476      -1.18075260     -16.52886902
N        7.31378200      -0.06457400      -0.71883100       1.23811712       6.48391943       0.60436364
C        7.68352700      -1.31763100      -0.60871200       8.26561413       2.77961462       1.53597315
C        9.08694900      -1.29307000      -0.36325300       2.03437742      -7.68582069       1.89562939
N        9.56285200      -0.06396000      -0.26068500      -1.49271832       6.27991796       1.14549160
C       10.92478700       0.49624300       0.21774600      -0.43300559      -9.14507023      -9.29296219
C        8.46285500       0.82510300      -0.42534300      -2.04526493      -2.56598234      -0.50076283
H        5.65194600       1.03403500       0.94635800       0.48512479      -1.07209481      -0.13372711
H        4.24451700       1.33746200      -0.02237300       6.73696826      -1.47463880       0.23105857
H        4.61521200      -0.34898000       0.46596200       4.35200432      -0.49759130      -0.52778642
H        6.07373400       1.40135500      -1.45605200      -0.11279141       0.03725526       0.12376509
H        5.57827300      -0.27552000      -1.71147700      -0.45327946       0.29999929      -0.14796894
H        7.27090000      -2.16606000      -0.72983100      -5.01546678      -7.38383509      -1.23251802
H        9.89922300      -2.17582300      -0.09656800      -2.99499411       2.35120837      -1.12346387
H       10.81041800       1.38930300       0.51961000      -1.13443370       8.43686696       4.41459719
H       11.32541900      -0.35846300       0.74327100       1.18238366       0.13264752       1.05163520
H       11.26263200       0.62488900      -0.91064700       1.24113757      -0.33819425       2.72029947
H        8.42650900       1.91306100      -0.44598500       0.12668081       0.20302435      -0.00048192
B        8.45010100      -0.73455100       3.13858700       2.82648429       4.08477613      -4.68167405
F        8.23932900      -1.56298200       1.90808900      -0.57353201       0.33406593       1.35071547
F        7.84379200       0.62068300       2.89738700       0.23369581      -1.82986968      -0.36023779
F        9.89365000      -0.50020700       3.08095500      -0.43787736      -0.17092981      -0.39579840
F        8.17555000      -1.10142000       4.35364800      -1.89759677      -2.35372655       3.22796117
48
Properties=species:S:1:pos:R:3:forces:R:3 energy=-41274.7272893676 pbc="F F F"
C       -2.87951300       0.10549400       0.69260900       0.07717157       0.56723413       1.92841322
C       -1.89204900      -0.04213200      -0.44968400      -5.06682232      -1.76985268      -4.28491034
N       -0.54415800      -0.56760800      -0.16688100     -13.48357373       7.10323233      -3.08542338
C       -0.16191000      -1.72454900      -0.12671900      -4.23449618     -20.55236764      -0.78169333
C        1.07234700      -1.86668600       0.23161700       7.12140806       2.02920781       2.38026937
N        1.52897500      -0.46747200       0.31841600      -1.98376034      -1.72053390       0.19021976
C        2.86852000       0.00705700       0.65915500      -1.07125669       3.73095680      -3.22269829
C        0.37009300       0.24033400      -0.00184100      10.55574074       9.64183955       3.01424442
H       -2.29116500       0.56745000       1.50048800       0.03432066      -1.02037364       0.96767131
H       -3.61637100       0.92244100       0.56437700      -0.15693342      -0.63327089      -1.07311496
H       -3.37557700      -0.85139400       0.92160800       0.15524399       0.31128340       0.63025559
H       -2.03522800       0.88719100      -0.96845600       2.26924243       1.90650654      -0.32989220
H       -2.41656200      -0.64433200      -1.31672600       1.49131732      -0.12517346       2.04540285
H       -0.80475600      -2.82016500      -0.16991500       1.52004144       4.58287920      -0.22762149
H        1.79181600      -2.67894000       0.33338300      -0.18754883      -0.30834178       0.11431011
H        2.92524600       1.15182100       1.03766400      -0.88805854      -3.38187350       0.10156400
H        3.37570200      -0.75273600       1.26863400      -0.97472276       0.21259851       0.66775121
H        3.39468600       0.16876200      -0.39666000      -2.60917484      -1.57775948       2.21407645
H        0.33773100       1.34016000       0.05692600      -0.30057278      -0.34898753      -0.13821340
B        0.56786700      -1.10062900       3.65055400      -0.00317092       1.00782186       1.34923099
F        0.23577000      -2.00738600       2.60865400      -0.43875133      -0.68481083      -0.78980972
F       -0.19921800       0.11260600       3.45655500       0.89766205      -0.36031520      -0.65869249
F        1.97683500      -0.99562900       3.62732100      -0.10935304       0.72163530      -0.38290330
F        0.19415400      -1.52430800       4.95521800      -0.13934816      -0.64279264      -0.42484631
C        5.18515400       0.35977400       0.35882000      -2.73747689      -5.94197045      -6.56609421
C        6.11708200       0.06899700      -0.89401700     -15.77270837       8.26694967      -4.32930109
N        7.30966500      -0.21430600      -0.63248600      15.02039099      -0.39305680       2.78434536
C        7.75139800      -1.44828100      -0.58306300       5.28956346      -9.08883794       1.60191356
C        9.14139000      -1.53840100      -0.22681300      -2.13599077       0.82122346      -0.47929100
N        9.62231700      -0.20415300      -0.16957200      -3.53688815      -2.51127216       0.11264034
C       10.93927100       0.23709300       0.16210000       4.54701689       1.93360035      -0.33225691
C        8.50587600       0.54952500      -0.33412000      -2.23389864       4.25518892      -0.31648427
H        5.69866900       0.75111000       1.05545700       5.14196725       3.29088036       7.06551282
H        4.43964200       1.06477300       0.03391500       1.12323964       0.80776915      -0.03861660
H        4.63378800      -0.61786800       0.61980200       3.41251987       2.25458641      -0.11246788
H        6.09082000       1.15378500      -1.33982400       0.26911346      -1.99450138       0.00567535
H        5.51853200      -0.57303100      -1.65397800       1.62048211       0.52672799       1.22987630
H        7.23995100      -2.44107000      -0.59078400      -0.69666483       1.29280205      -0.40763357
H        9.85184100      -2.32859700      -0.05196700       0.11820166      -1.02077326      -0.03158158
H       10.91629900       1.29406800       0.72294300       0.03788801      -2.49863239      -1.53780359
H       11.42296000      -0.54740000       0.87896300      -0.69332865       1.39813878      -1.37429318
H       11.50338300       0.29917500      -0.93819200      -0.92000880       0.05813108       3.53867592
H        8.58575000       1.65014000      -0.30721100      -0.58020747      -0.23815265      -0.14406404
B        8.59722700      -0.89870500       3.22263000      -0.06047429       1.90457573       1.00414514
F        8.22282800      -1.81746900       2.15918500       0.63853648       0.96810458       0.48466569
F        7.90094100       0.45615700       3.00001700       0.73273517      -2.34950101      -0.20322594
F        9.98603000      -0.57066600       3.30084000      -0.66535169      -0.53478913      -1.04873268
F        8.24140000      -1.40743400       4.50370200      -0.39870257       0.11044294      -1.12477648
48
Properties=species:S:1:pos:R:3:forces:R:3 energy=-41275.2721384975 pbc="F F F"
C       -2.71552600       0.79383900       0.66999900      -7.58923869       4.48662648       5.57093569
C       -2.03114500       0.88739100      -0.49720700       6.06952658     -10.30176752      -5.69998436
N       -0.59539700       0.34697700      -0.23805800       1.72514050      -1.80944143      -0.00755426
C       -0.11342000      -1.01229900      -0.07172800      -7.83250829      -1.87861741      -2.20543057
C        1.16229100      -0.95723400       0.10244300       5.54429799      -3.07941961       1.78014447
N        1.60124700       0.32530100       0.19374900       5.68130839      -0.65651824       1.64728510
C        3.03675300       0.81474000       0.57483500      -6.11241162       0.59351039      -3.64065589
C        0.56394100       1.03966600      -0.02741500      -5.61751149      12.47149858      -0.48564277
H       -2.25278700       1.38314000       1.44881600       1.27273875      -0.99354205       1.51374310
H       -3.41219600       1.67003000       0.44262800      -1.12128382      -1.41419198       0.55284071
H       -3.34027400      -0.06939100       0.97065700       0.96814911       0.07344386      -0.14341886
H       -1.86394700       1.70617200      -1.02763400       0.47371535       5.78615605      -2.61710686
H       -2.24763800       0.04068900      -1.27674900      -0.87035677       1.86082121       1.09660900
H       -0.72020500      -1.93796400      -0.33259300       0.50657769       1.44021650       0.66839477
H        1.87286000      -1.70688600       0.33454800       0.78253342      -1.55924050       0.05894556
H        2.85920500       1.77728800       0.99630600       0.22355815       1.50872703       0.92882591
H        3.45748000       0.12245700       1.22022100       0.34856133      -1.93605505       1.95758902
H        3.44721700       0.89350400      -0.43870900       0.12112123       0.04810016      -0.03588956
H        0.50161800       2.29254400       0.01727400       0.55032625      -4.39141788      -0.16966328
B        0.62202400      -0.27835800       3.65477900      -1.33980166       0.96162252      -3.85795208
F        0.29552800      -1.27967800       2.46752000       0.33988068       1.30802821       1.41807232
F       -0.05322400       0.95936500       3.33300400      -0.25151025      -0.87544937      -0.01061844
F        1.95013900      -0.01814600       3.58794400       2.43731887       0.00895714      -0.39736141
F        0.25962300      -0.80403800       4.82192300      -1.17928770      -1.28103337       2.03657062
C        5.42733500       0.21499500       0.57536000       9.94539369      -2.30452969       2.38562933
C        6.42612000      -0.02822700      -0.55269100      -4.87848680       9.40884924      -3.36278943
N        7.75122000      -0.34736400      -0.45391100       3.42232643       8.74507285       2.18827064
C        8.08654600      -1.53763300      -0.25971700       7.52414032     -13.75170435       1.12939046
C        9.50711300      -1.60874400       0.01003700      -2.99272571       1.72296812       0.36682802
N        9.87128200      -0.23744800       0.19626000       6.62217212      -6.39229259       1.12826443
C       11.26640200       0.19025500       0.47570000       0.11005870      -4.00945429      -0.94528759
C        8.90066800       0.52682700      -0.00465100      -9.51782162       0.31824475      -2.53414894
H        6.00484100       0.58086200       1.43285300      -0.11696836       0.21923774       0.24409537
H        4.72469500       0.81916400       0.34265100      -3.10195702       5.21992967      -2.25377037
H        4.99783800      -0.63377400       0.85825200      -2.11675646      -5.03321044       1.72452883
H        6.38139600       1.15489000      -0.98527300       0.73160226      -3.67833936       0.59051519
H        6.12300300      -0.59032300      -1.39189100      -1.80755312      -1.52005192      -1.42752373
H        7.63709500      -2.58425800      -0.43241100      -0.50913023       2.40262825       0.08328728
H       10.22880000      -2.38518800       0.15079400       0.54381406      -0.94387993       0.21151307
H       11.19157700       1.12996400       0.86880600       0.37334977       3.62548281       1.96458550
H       11.76502200      -0.59614500       1.07795900      -0.31884378       0.58387886       0.61156332
H       11.75942700       0.17213200      -0.47467000       0.92988046       0.47821711      -1.40539435
H        8.72544200       1.52016400      -0.05154900      -0.03446951       4.51068346       0.03021495
B        8.79605400      -0.80635600       3.55911700       4.48647556      -1.67928219      -0.27225250
F        8.58555100      -1.74089900       2.42687400      -0.02503611       1.08931772       0.84591161
F        8.25430500       0.41290100       3.37518200      -1.51394216       1.22035735      -0.42364457
F       10.34889300      -0.50821300       3.56393900      -2.03291622      -0.59071744      -0.61164954
F        8.62070900      -1.43697600       4.78150200      -0.86860033      -0.00495593      -0.21406420
48
Properties=species:S:1:pos:R:3:forces:R:3 energy=-41270.8557464603 pbc="F F F"
C       -2.30830200       0.33021900       0.14881400       0.10460422       1.54910218       7.72345639
C       -1.39789200       0.09643800      -0.93433900       1.99870939       5.18150699      -2.76589589
N       -0.00903400      -0.32408500      -0.57524600      -3.93941469       4.53115037      -0.92802647
C        0.43185300      -1.64375700      -0.59118500       0.00618218       5.24007417       0.50723819
C        1.68231900      -1.28097500      -0.25709600       1.55489748     -31.46194139      -0.38103378
N        2.03395400      -0.18780600      -0.23154600      12.46085506      19.61266772       2.60295893
C        3.41050400       0.37608400       0.15409600      -0.24670837     -11.40281378      -5.30179959
C        1.04306800       0.63355600      -0.26170900      -8.41038029       1.03291247      -1.18413378
H       -1.66433300       0.72171500       1.08330100      -1.41123329      -1.00011768      -2.20821905
H       -3.02022000       1.11609000       0.04004000      -0.78124568       1.20388144      -1.10478112
H       -2.88606100      -0.44932400       0.58259500      -0.45815416      -1.96865215       0.14916845
H       -1.39932800       1.18167200      -1.38986100       1.30470344      -1.92467096       0.55265664
H       -1.77847600      -0.40631100      -1.76264400      -0.85062787      -2.61680048      -1.98127904
H       -0.27870800      -2.37202400      -0.72490300      -1.49210237      -3.07796395      -0.28742443
H        2.39064500      -2.25983000      -0.17612700      -1.05454354       3.32127010       0.13184124
H        3.34091100       1.22196100       0.63656800      -0.96784032       6.24357529       3.36649432
H        3.91403600      -0.51491700       0.69394100      -3.81560656       1.99454857      -0.08814503
H        4.05302000       0.26686200      -0.77471400      -1.80311417       1.31006927       0.04142211
H        1.01760200       1.68331400      -0.41044200      -0.10034046       1.46136609      -0.18150344
B        1.16298900      -0.93788600       3.13098200       0.38997525       5.86724102       7.55926059
F        0.84049500      -1.63567300       2.13743200      -1.11441545      -4.67104679      -6.11749077
F        0.39809600       0.39233800       2.94598600       0.31325252      -0.88046054      -0.03386851
F        2.48393200      -0.50136700       3.31775500       0.40873935      -0.54790716      -0.77840917
F        0.71415200      -1.49130800       4.40601200       0.10127789       0.39184476      -1.26568550
C        5.72684800       0.01436100       0.76418100       0.40999724       2.38746054      -1.76260238
C        6.68407400      -0.16306400      -0.42540500      -3.90241671       0.47289579      -6.31056264
N        8.07651400      -0.62945000      -0.21699300     -10.26755299      28.05547804      -0.97787442
C        8.39330700      -1.71720800      -0.22406300       7.29522594     -28.11607159       0.73280489
C        9.71951600      -1.82959200       0.12078900       2.06683660       2.41291289       1.41845884
N       10.11647700      -0.44257900       0.31931700       2.58207233      -2.04790473      -0.11798252
C       11.54802400      -0.02494300       0.59580700      -0.83344578       2.09756773       1.01448068
C        9.07790000       0.36539000      -0.00633900      -1.08908784      -1.11052571       0.36717210
H        6.32527200       0.43852100       1.54281900       0.33084344      -0.03752207       1.83755054
H        4.87468500       0.76186000       0.43251900       5.54999964      -0.64153523       1.64213995
H        5.09974900      -0.83415400       0.93183200       1.39382513      -1.89222168       1.58724904
H        6.56722500       0.84561400      -0.93757900       1.90595870      -0.38534774       0.79123060
H        6.22734500      -0.75935500      -1.43675000       1.27381099       0.69817522       3.80978620
H        7.79363200      -2.67980700      -0.28317600       0.14962196       1.70441712      -0.30765933
H       10.47139700      -2.57268900       0.28184300       0.30796095      -1.17488251       0.04383285
H       11.49118300       1.09349700       1.07152600       0.51780411      -3.31767170      -1.07610841
H       11.97243200      -0.83208200       1.26399800      -0.11454381       1.10394989      -0.25017955
H       12.03724700      -0.01668500      -0.40242600       0.41301249       0.18911602       0.29699612
H        9.01372200       1.44967500       0.00470900      -0.35326110       0.22003488       0.08100824
B        9.16491700      -1.10130100       3.64418800      -1.88663318       0.12534300       1.60184075
F        8.81501900      -2.07086800       2.55601800       0.57388148       1.07120307       1.16125229
F        8.56864000       0.17015800       3.43655500      -1.64726403      -0.24779794      -0.71142750
F       10.47095400      -0.74522400       3.69971700       2.86701602      -1.01749040      -0.44367937
F        8.74925900      -1.60088100       4.99217900       0.26226212       0.06999380      -2.45493528
48
Properties=species:S:1:pos:R:3:forces:R:3 energy=-41274.1000476223 pbc="F F F"
C       -2.84801900       0.19203800       0.67602300       3.22843306       3.70105552      -2.06684771
C       -1.94002400       0.15824000      -0.66626000      -1.48982699     -11.04875292       7.20270232
N       -0.57536600      -0.33911200      -0.23560900      -2.14351904      -1.10985893      -1.07027371
C       -0.06086000      -1.62363200      -0.07493900      -6.46878311      -3.10862068      -2.11162112
C        1.21572000      -1.57891500       0.09019300       7.97779576      -6.39997751       2.85951210
N        1.70451000      -0.32887500       0.21796400      -8.23982201       2.48585691      -1.25322605
C        2.97145100       0.12267500       0.51985600      -1.16872890       3.21643233      -3.80748727
C        0.45462300       0.42945200       0.00039100       7.27976933       7.16962017       1.63054680
H       -2.13129200       0.64480900       1.39672400      -0.72170843      -0.02009619       0.20139341
H       -3.52739900       0.97017400       0.33127000      -1.38286879      -0.08029607       0.97177255
H       -3.22196500      -0.69588600       1.11351100      -0.90259569      -1.74919431      -0.12400101
H       -1.80734500       0.99793600      -1.06217300       1.19158035       9.63582135      -4.27208421
H       -2.34054200      -0.57576300      -1.34246400      -0.33527313      -0.67841577      -1.12997902
H       -0.66651100      -2.49470400      -0.31649500      -0.26971448      -0.19923302       0.27504773
H        1.94051800      -2.46553800       0.32887800      -1.75602915       1.67257577      -0.80545241
H        3.04070000       1.16281500       0.92367900      -1.45146122      -0.84935470       0.15750452
H        3.44759000      -0.48073400       1.20028700      -0.32025506      -2.73620666       2.97601283
H        3.61638900       0.16499200      -0.43439000      -2.94766065      -0.99667748       0.79396887
H        0.62380800       1.56684900      -0.00224400      -1.19881851      -1.80629063      -0.13909181
B        0.76565700      -0.92619300       3.57765000      -5.58607544       0.11831394      -1.01135190
F        0.31122600      -1.89317000       2.51081000       0.84878187       0.90795171       0.02885151
F        0.03633900       0.30889700       3.40637400      -0.15064694      -0.03077901      -0.96058928
F        2.02420400      -0.66759100       3.62450400       5.68036007       0.52202622      -0.78568546
F        0.29478400      -1.48026900       4.72932100      -0.76258197      -1.38138111       1.98370714
C        5.20159800       0.60153400       0.45326500      -1.75850177       2.21672782      -2.86689640
C        6.08677700       0.46786600      -0.83660100       2.59366992       6.51590507       6.89459262
N        7.46965900       0.07159800      -0.38067900      -6.61489652      -8.85615989      -2.85005935
C        7.97558100      -1.38108100      -0.42602800      -9.56897463       0.04071456      -1.60584888
C        9.22001500      -1.23946300      -0.17016900       1.32936557      -6.28812360       0.25522667
N        9.61795700      -0.04026900       0.00088500      -1.27519449       6.25498934      -0.49443083
C       10.84070200       0.54211600       0.19806800       6.74230935      -2.88026644       4.92693308
C        8.54022300       0.69879100      -0.27288900       3.68443025      12.48212731       1.39926620
H        5.83088800       1.01481300       1.16976400       1.45991563       0.98559053       2.53963207
H        4.29563500       1.34372000       0.16924300       5.39844573      -0.40156933       0.96156868
H        4.54721000      -0.24826200       0.76163500       5.79652178       0.59453185      -0.10342691
H        6.08944200       1.44085900      -1.35914000       0.57975531       0.07569192       0.05191055
H        5.76796500      -0.19423800      -1.43537900      -3.06170508      -6.95790106      -6.12300853
H        7.21977700      -2.23938600      -0.61858900       1.79615773       1.61966370       0.59717107
H        9.83370900      -1.98150300       0.04976300       3.90191366      -4.72107801       0.90188721
H       10.88826700       1.48830400       0.70025800      -0.77280053       1.23491848       0.39610821
H       11.36998000      -0.23021700       0.96178200      -0.91680917       2.19540990      -1.66679134
H       11.46763000       0.52921500      -0.65036400       1.12407102       0.27162358      -2.17023554
H        8.51338400       1.84314500      -0.23403300       0.55352488      -1.67707906      -0.02221456
B        8.64986100      -0.62188300       3.32476100      -1.72854800       0.64549013       2.06809544
F        8.24744900      -1.52501900       2.29848600       0.52765321       0.41706084       0.06338990
F        7.81144300       0.65073500       3.13723000       1.83447892      -2.07336475       0.03691408
F       10.03946700      -0.39473900       3.40995400      -0.57372987       0.31497427      -0.98246870
F        8.28461400      -1.20083000       4.64043400       0.02310087       0.77301553      -1.74784151
48
Properties=species:S:1:pos:R:3:forces:R:3 energy=-41266.3483909786 pbc="F F F"
C       -2.66457100       0.17378800       0.50777100       0.69552603      -8.67764198       5.26181840
C       -1.87040300      -0.22720900      -0.70365500       7.98571576      13.77324353       7.02985620
N       -0.39954400      -0.54185400      -0.44905900     -10.94523221      -4.76095363      -2.34197722
C       -0.06457100      -1.84629600      -0.23475900       3.64200677      -0.38250840      -0.38864028
C        1.27375000      -1.78087500       0.02569300      -0.13413823      -8.76405110       0.82182815
N        1.59127400      -0.56948300       0.21672700       4.67826783       9.57126027       1.33227074
C        3.05247100      -0.00070300       0.44308600      -9.38825133      -5.16413409       0.58789817
C        0.51148300       0.24163200      -0.06772300       7.06287084       9.49821745       2.70205918
H       -2.06685600       0.54387200       1.40002900      -0.28912226      -0.74966165      -1.09176494
H       -3.42949000       0.78381100       0.37474000      -4.19846687       4.49133874      -1.84624209
H       -3.32460000      -0.84962200       0.82657000       2.58171994       3.16890035      -0.24336556
H       -1.64906200       0.86559500      -1.09944900      -0.98730775      -2.27748249      -0.61219323
H       -2.27243800      -0.73715500      -1.35027400      -5.24360271      -7.64315425      -8.74966012
H       -0.51311100      -2.74809100      -0.35178700      -3.03934966      -2.97708377      -0.83899107
H        2.03280100      -2.54762800       0.22116200      -0.41302186      -0.39981922      -0.10357170
H        3.01233400       1.05850600       0.72525200      -1.59827492      -0.61108127       1.81069098
H        3.48234500      -0.82402100       1.18562600      -2.53314825       1.94287852      -0.65440354
H        3.57855200       0.07502800      -0.51099400      -4.77659309      -2.63432707      -1.48610363
H        0.68895500       1.41288600      -0.07081700      -1.24984914      -2.94825444      -0.20213678
B        0.75279000      -1.11041200       3.44784100     -10.77850335       0.95222536       3.76401504
F        0.41845400      -1.93526800       2.45616800      -1.57432945      -2.80940352      -2.77817643
F       -0.02629700       0.18091400       3.18793900       0.82957612      -1.32710462       0.25674381
F        1.95752600      -0.92479200       3.49876200      10.87793007       2.20562723       0.74538371
F        0.23784500      -1.64563900       4.81951600       0.63175066       1.03312933      -2.65600383
C        4.97497200       0.47842000       0.16710300       1.91566952       1.66549812       0.45288674
C        5.72017400       0.30506600      -1.04848200       6.21655716       0.69321106      -3.73906508
N        7.23048400      -0.24199900      -0.69634700     -11.48981111      21.60244563      -2.54544845
C        7.65774000      -1.31882600      -0.61935700      -3.23416132     -24.93937717      -1.00711016
C        8.90026800      -1.38198200      -0.44632200      11.49730996      -5.00664689       3.30605211
N        9.25532000      -0.07054300      -0.18960500      17.71604832      -6.01470722       3.72265724
C       10.72030000       0.48119700       0.13178700       0.19129232      -8.90365226      -3.95174534
C        8.32091600       0.58062000      -0.49695000     -14.39625226      18.25251522      -2.81145097
H        5.57497900       0.81464000       0.94145500       2.11498464       1.39234328       2.23850575
H        4.11812900       1.19689200      -0.06278900       5.43751124       1.06133363       0.52149341
H        4.47973500      -0.44803300       0.45781800       5.29961105       0.96970036       0.23706404
H        5.88632100       1.37166500      -1.49206500       0.15065826      -2.12926114       0.10750528
H        5.48729500      -0.45292800      -1.84730100      -0.89235573       0.66120032       0.58546158
H        7.08103100      -2.30617800      -0.69781700       0.42176748       1.83455185      -0.07327464
H        9.62261100      -2.21469800      -0.22004300      -1.06528537       0.86094704      -0.33461539
H       10.73522500       1.35631000       0.56739500      -0.80955201       6.48774535       3.40548894
H       11.16978000      -0.32300100       0.83134700      -0.63192223       1.32295407      -1.09577914
H       11.29126100       0.56164200      -0.86558000      -0.85417768      -0.42190003       1.33527851
H        8.18384500       1.80084500      -0.45106300       0.59126822      -3.96925037      -0.10844599
B        8.33982800      -0.70837400       3.05379400       1.84598941       2.04248217       3.76059279
F        8.08325200      -1.59781500       2.08956900      -1.17337672      -2.01001710      -2.49064744
F        7.72794500       0.58253100       2.78488700       0.32769994      -1.09646271       0.03003027
F        9.79020900      -0.57011300       3.15715700      -0.52930946       0.52055560      -0.62531523
F        7.99450500      -1.22586500       4.37569300      -0.48069499       0.61475893      -1.24212518
48
Properties=species:S:1:pos:R:3:forces:R:3 energy=-41274.2766056446 pbc="F F F"
C       -2.59575300       0.05976100       0.57160300      -3.69832495       2.93957853       0.38090627
C       -1.67373300      -0.09354800      -0.67706000     -14.76301982       0.53476754      -3.56039759
N       -0.49257000      -0.46904300      -0.43973200      14.94281727      -6.61211870       3.55608812
C       -0.06001500      -1.85530100      -0.20853400      -0.02749829      -1.31109502      -1.23981921
C        1.31127200      -1.78573200      -0.07772100       2.07025809      -7.08877037       1.72481438
N        1.68272100      -0.50039800       0.13757800       7.77499261      -2.40286031       1.36788673
C        3.05040900       0.03117300       0.46152400      -1.61893974      -3.96532896      -1.83043572
C        0.70977400       0.23426900      -0.09860200     -10.49880483       9.82009602      -1.97639047
H       -2.11842300       0.58203700       1.45488000      -0.03954550      -1.36728345      -0.67650561
H       -3.52640700       0.74755600       0.34522300       2.32773688      -0.76542798      -0.23019254
H       -3.18614800      -0.83123000       0.75507400       0.81519970      -1.19496294       1.07235784
H       -1.74129900       0.84078200      -1.15899400       0.34986048       2.16984928      -1.44670221
H       -2.22330500      -0.90117900      -1.44879700       1.53568508       2.44860269       2.19796205
H       -0.62273000      -2.85166300      -0.30625300       0.27453248       2.09206014      -0.05881819
H        2.10699000      -2.66347300       0.14334600      -2.45176680       2.44112383      -0.67480074
H        2.98615000       0.94604500       0.91796600      -0.66928873       3.36136806       1.93099600
H        3.45174800      -0.71307700       1.15200000       0.19346452      -0.22006920       0.34327133
H        3.60399700       0.15070900      -0.47149900      -0.49535721      -0.64360912      -0.35873666
H        0.61574700       1.35412400      -0.00381200       0.57574484      -1.17806218      -0.06402136
B        0.68998400      -1.17164800       3.52113700       1.22057134       3.03735715       0.51492167
F        0.44704100      -2.07047400       2.51687900      -1.33236944      -1.07656669      -1.22784050
F        0.01167000       0.19514500       3.26311600       0.70883131      -2.43608513       0.21922217
F        2.10499100      -0.86981100       3.34028600      -0.42623866       0.18699938       0.47188061
F        0.40117700      -1.64757900       4.80682400      -0.10148949       0.36379795      -0.63866848
C        5.56408700       0.51254400       0.31070300      -1.17608783       4.22166635       7.49859307
C        6.45253900       0.40865000      -0.76211200       3.47450936      -2.83892397      -5.72497381
N        7.92852300       0.01147100      -0.48731600     -10.13015448      -0.01436001      -1.25693521
C        8.10887500      -1.24356400      -0.41000500      10.03407907      -8.78960085       2.00029629
C        9.80482600      -1.19900500      -0.08073900     -10.16603644     -18.95070098      -0.92887177
N       10.01899900      -0.03083400      -0.07854800       1.70193523      14.82677204       0.19720543
C       11.30448600       0.47801400       0.22831600       4.46844713       2.76732235      -0.12117124
C        8.90288400       0.81563100      -0.30558500       4.62642042       5.27185051       0.73523372
H        6.18617700       0.95520500       1.23248700      -1.74180760      -0.71965911      -1.93164747
H        4.78792100       1.28277800      -0.00276800       1.53847225      -0.61828603       0.85697034
H        5.03149600      -0.33858500       0.72890900       1.19321996      -0.52067830      -0.51194355
H        6.64975600       1.30245400      -1.28081000      -0.40391666       2.45064811      -1.09682609
H        6.08470900      -0.33401000      -1.54318200       0.67839957       0.62282377       0.62571737
H        7.70495600      -2.29618700      -0.46310700      -0.92397543       1.96446033      -0.22400224
H       10.39413500      -2.20108100       0.05559300      -0.58677945       2.71752039      -0.14722287
H       11.26948100       1.52617400       0.68458000      -0.04916568      -1.46377033      -0.52879374
H       11.73863200      -0.25386600       0.92874600       0.36257781       0.31105778       0.45684917
H       11.91099300       0.49241200      -0.74174800      -0.45851045       0.17699881       1.22647463
H        8.77494300       1.91085200      -0.20833200       0.71032387      -0.60451225       0.02885689
B        8.89878100      -0.68899400       3.30208200       4.66280436       5.62402048       0.91915936
F        8.77126100      -1.50011900       2.29423600      -1.58311194      -3.65831581      -4.75592801
F        8.34924500       0.61564200       3.08588600      -0.33631480      -0.66986061      -0.14562689
F       10.46779600      -0.41612400       3.20818100      -1.55277659      -0.04920210       0.28605195
F        8.65251200      -1.18107400       4.50171400      -0.97188051      -1.23029303       2.76799472
48
Properties=species:S:1:pos:R:3:forces:R:3 energy=-41242.8865430899 pbc="F F F"
C       -2.75669500       0.76914400       0.13759200       4.81330939      -5.33912444       7.35870998
C       -1.98342100       0.78584900      -1.01024000       5.95196423     -12.32650569      -8.34150116
N       -0.37705600      -0.12861300      -0.91591400       1.17779125      11.55532517       2.84103959
C        0.14166700      -1.37936100      -0.75392300      10.22338025       9.12190328      -4.84465003
C        1.28556400      -1.23124000      -0.13143800       8.18510501      -3.70521031       4.79494245
N        1.73247300       0.05461700      -0.50263700       7.07417303       3.18097742       2.67638920
C        3.03449600       0.57642900       0.18556200       1.72981266       4.96433564      -6.71347390
C        0.73551400       0.91097900      -0.28660700      -9.58099486       1.12606870      -3.48056269
H       -1.86201600       0.93437900       0.90232000      -2.31523532       0.50951719      -0.43201820
H       -3.25543400       1.61484500       0.04199900      -4.68715732       4.82965135       0.79979273
H       -3.08964300      -0.24366300       0.53015400      -0.98449690       1.56945284      -1.21612345
H       -1.46622800       1.54893100      -1.44356900       0.99048294       3.93138808      -1.39696390
H       -1.84663800      -0.21882500      -1.83535500      -3.25491457       4.10858317       1.58465432
H       -0.59414500      -1.75820800      -0.63069600     -18.25955717     -13.85326554       3.06998883
H        2.22487600      -1.85611800      -0.25330900      -1.38940159      -0.57379671       0.72437087
H        3.18401100       1.77981800       0.35085800      -1.94598469      -3.63871086       1.67699297
H        3.50393300      -0.21906900       0.63304800       0.68794941      -2.05420011       3.77287259
H        3.87217700       0.69349100      -0.62406600      -2.26807200      -1.13810321      -0.22960184
H        0.57138200       2.07277100      -0.51208500       1.19687122      -2.80134307       0.15644092
B        1.02555800      -0.36381800       3.58216700       4.03110709       6.82695509     -12.32253229
F        0.73273300      -1.25688100       1.88921700       1.34691959      -0.78258527      -1.82915086
F        0.35694300       0.68931100       2.65075900       0.77370292      -0.83222668       3.73953242
F        2.42978900      -0.07078400       3.28812900      -2.77201950      -1.56390034       2.66459350
F        0.22710900      -1.08450300       4.20037500      -2.60670679      -3.48188667       4.50589089
C        5.84328000       0.80584600       0.39815700      -1.40893556       6.88811572       4.25127543
C        6.60868800       0.81507200      -0.86512000      -0.20976627      -2.38561460      10.33837001
N        8.26071400       0.31535300      -0.62297500     -15.83761751      -3.93272810      -2.04722160
C        8.59133400      -0.92855800      -0.28806700      -6.36764562     -12.06104605      -3.83544074
C        9.87931600      -0.99720400      -0.02277100       3.82824818      -1.26190105      -1.14419473
N       10.05712400       0.47019700      -0.19235600      76.23944440     -37.95297509       5.10251489
C       11.56310100       1.01920600       0.10859100     -10.60692990      -8.27308634      26.88707912
C        9.21491400       0.93644700      -0.17832100     -56.05443942      48.36481293       1.02363073
H        6.48534700       1.49140200       1.27946600      -1.27583664      -2.95792787      -2.25210873
H        5.11671200       1.78830500       0.11474600       1.46700557      -3.25669541       1.48243650
H        5.25939900      -0.08752400       0.95240500       2.16213673       2.11330034      -2.21619994
H        7.16685000       1.46372900      -1.24191700       2.92933595       9.82189454      -4.64124663
H        6.60357700       0.06645100      -1.41676600      -2.14249021      -8.56159488      -7.32550641
H        7.84200300      -1.94864600      -0.66506000       2.81189784       4.19757039       1.87965233
H       10.62308900      -1.85030700      -0.12927200      -0.65643529       1.63399515       0.50252334
H       11.81588500       2.02463900       0.37113000      -1.85879779       2.16179938       2.88040437
H       11.96704000       0.17588000       1.01526700      -0.96108842       3.34494773      -3.96187891
H       11.87762300       1.15967000      -0.62177100      11.70768947       1.03050334     -26.39483333
H        9.30136000       2.01442900      -0.05911400      -1.68183298       1.30972636      -0.06096452
B        9.30391900      -0.20400500       3.22885400       0.32413289       4.95112907       1.30301984
F        8.93824500      -0.92081400       2.13467800      -0.11714400      -0.41026823      -0.27278973
F        8.43534200       1.38941100       2.99757500       1.80876371      -3.77416541      -0.02164131
F       10.64905400       0.10187500       3.49968900       1.58944357       1.18430048      -3.19525196
F        9.07085500      -0.63490400       4.47326000      -3.82462981      -1.81603833       2.19012487
48
Properties=species:S:1:pos:R:3:forces:R:3 energy=-41233.4836490869 pbc="F F F"
C       -2.16986300       0.79386600       1.04164000     -27.25052053     -15.86083698     -22.57460472
C       -1.18557800       0.60152500      -0.46287500      -6.40029740     -13.98793304       9.78130272
N        0.02573500       0.27516600       0.08667300       6.82520811     -11.23015775      -1.25593348
C        0.49293200      -1.28041000      -0.18056500      11.05820890      17.67034665       2.23341847
C        1.98046400      -1.20226800       0.33351700      -8.12581334     -19.60796706      -2.87484810
N        2.38466800      -0.10887600       0.53335800       0.93086042      20.83408988       0.36321829
C        3.92025700       0.41034300       0.78160700     -14.49159917       4.67106698      -0.79155621
C        1.28079600       0.81346800       0.11276100       0.79418453       5.56882746       0.91975282
H       -1.54448500       0.93933700       1.44078700      31.08215838       8.43288802      21.93842162
H       -2.56948100       1.55887400       0.50212400      -3.96195014       2.87567512       0.06859276
H       -2.50700200      -0.46162600       1.34244600       0.25976135       5.69145254      -1.39738346
H       -1.16016500       1.36402300      -0.85416700       0.60114666      18.30391806      -8.31558157
H       -1.80427600       0.01933100      -1.14987100       0.80939977      -1.72062204       0.01859083
H        0.17857200      -2.09930200      -0.18330100      -8.04514513     -15.03681100       0.44079408
H        2.84810600      -2.00192300       0.19759300      -2.55397552       0.84144846       0.58473051
H        3.68766000       1.61600100       1.27105700       0.70551333      -4.61144382      -1.19932123
H        4.02882500      -0.41536800       1.49906700      -1.46901967       1.57147251       0.85039196
H        4.41508400       0.67270900      -0.26242900      -8.16422045      -5.01392914      -0.22581143
H        1.23071100       1.93985400      -0.24256500       1.44519913      -2.21125290       1.48903252
B        1.69929300      -0.44176900       3.96948500     -17.32797284      -1.56502212      -0.60004357
F        1.14097700      -1.53002600       2.47150500       1.90145049       2.19341866       2.11736439
F        0.57809300       0.91711600       3.53975000       4.20607323      -4.19414412       1.32266241
F        2.89275200      -0.31596300       3.80498700       8.47298388       1.08272834      -0.57617699
F        0.92097600      -1.14554500       5.12862700       3.41899942       2.39599100      -3.81054332
C        5.72126200       0.27587700       0.51290100      12.74706177       2.92847196       4.81409671
C        6.96162000       0.21010300      -0.69237900     -17.44460324     -11.03512844      -1.37941356
N        7.87522200      -0.52451000      -0.24463400       6.16758875      16.68269149       2.30395396
C        8.55966500      -1.45154700      -0.15533800       2.76528455     -28.77551933       1.33784096
C        9.93849200      -1.41205500       0.09534700      -5.10196377     -29.02759496       4.28931165
N       10.16637400      -0.33756800      -0.12783000      13.15746855      27.99360242      -1.13266641
C       11.72853300       0.26935800       0.37535600      -3.57149682       1.30612550      -0.78061891
C        9.15906700       0.48063200      -0.16812900      -4.48637756       6.05386282      -1.06091128
H        6.53410700       0.67285300       1.41087900      -2.48285830      -1.34221955      -2.00710881
H        4.95879400       1.35286000       0.24611100       9.83843144      -0.68704542       3.02232043
H        5.12398800      -0.76584900       1.06913200       6.65368124       3.04683544      -4.29195573
H        6.81121500       1.06570600      -1.05285800       0.79016640       9.19435073      -4.41391015
H        6.27858900      -0.83381200      -1.46497200       2.06390938       4.45695517       1.64107456
H        7.86525000      -2.69487700      -0.34534900       3.02071486       4.79043370       0.95112670
H       10.61066800      -2.23523100       0.48244100      -0.93688542       0.91992532      -1.00574060
H       11.57470100       1.36808100       0.82884000       0.25942856      -2.90212659      -0.77921599
H       11.85704400      -0.57907500       1.15387100       1.05887619       1.56759374      -1.13049573
H       12.09339600       0.37904900      -0.71054000       0.90495161      -0.78539635       1.92222136
H        9.12804500       1.60689200      -0.11784500      -0.13622160      -1.48225017      -0.24618443
B        9.11890300      -0.89228800       3.39413500       3.62534785       6.54389083      -3.74953353
F        8.95739300      -1.81052200       2.37184000       0.06668795       0.41212495      -0.42352173
F        8.52215700       0.48715800       3.28642700       0.81527042      -2.52030154      -1.29683326
F       10.81726200      -0.37653300       3.45557600      -3.39822903      -1.46003572      -0.95878303
F        8.87615600      -1.28734300       4.56291400      -1.10277929      -2.97966469       5.88545590
48
Properties=species:S:1:pos:R:3:forces:R:3 energy=-41223.3174601046 pbc="F F F"
C       -2.31069800       1.74823700      -0.21080300      -5.81221531       1.19300314      12.82350087
C       -1.38371000       1.49992600      -1.29071700     -12.17428104       0.16856501      -1.56633087
N       -0.29034300       1.04112100      -0.90317600      12.97689886      10.54445466       4.23635129
C        0.29178500      -0.01699100      -1.01471700       5.96018024     -17.65840013       0.85873666
C        1.86393000       0.17306000      -0.58119200     -10.88258373     -30.67681346      -7.10003652
N        2.06315900       1.22808000      -0.25102800       1.12452939      26.24070641       5.31304997
C        3.45839200       1.77674200      -0.02920200     -27.09929536      34.63199378     -13.05997790
C        0.96761900       2.01656200      -0.88088600      -0.21443646       2.78733875       1.44809216
H       -1.69242900       1.81404000       0.92236600      -1.26824964       1.11469524      -4.24949279
H       -3.21569200       2.58653900      -0.11195900       3.62049695      -1.69470755      -1.52012452
H       -2.92455800       0.92062800       0.30195800       0.77303224      -0.26900861      -2.47663427
H       -1.55098700       2.28119300      -1.83061600       1.35408053       7.60884629      -4.49120796
H       -1.83697100       0.87475200      -1.96446700      -1.82941994      -3.60309710      -2.26817179
H       -0.54105700      -1.19770200      -1.00618100       3.92628749       4.59250127      -0.13387122
H        2.18577200      -0.85624100      -0.37287200       1.50472892       0.60324646       0.31102423
H        3.52484900       2.92323700       0.26778400       0.26412640      -3.26435690      -1.37084177
H        3.83137900       0.97492400       0.38201800      -7.02788444     -37.60246532     -18.31306699
H        3.62049100       1.29001300      -0.69933500       6.54080442      -7.54279772     -19.91747007
H        1.07820900       3.07939500      -0.55966000      -1.53550914      -0.33166811       0.29790646
B        1.01515900       0.63154200       3.20604700      -2.56201022       3.23637271      -6.71244139
F        0.87296500      -0.17864900       1.70070100      -1.30233867      -0.34883839       1.36328963
F        0.51658000       1.90468100       2.80757700      -3.04931766      -0.08892694       1.23415652
F        2.22224100       0.83569000       2.80162600       8.74645600      -0.35675100      -0.35457007
F        0.82708500       0.10065400       4.34680300      -1.76519912      -2.39184722       3.76763538
C        4.43003500       0.72805500       1.26268300      19.44323834     -18.92961865      18.22416732
C        5.58521200       0.28815100       0.06500100     -23.81256642      14.10961683      -4.62715827
N        6.68706600       0.03396100       0.38410600      20.36825018      -1.13040496       4.33765277
C        6.94917600      -1.24065900       0.28426100      13.09196662      -1.28676987       2.62151576
C        8.44439200      -1.18752700       0.62774400     -10.56516717     -28.50824032      -1.89445466
N        8.93966900      -0.17481800       0.66171100       8.08355412      27.27246217       0.60083193
C       10.23460500       0.42608000       0.95495400       4.73611891       0.65224236       6.90283008
C        7.96517000       0.77520400       0.42741100      -6.22462353       6.52111108      -0.55277259
H        5.34774400       1.07963200       1.92257700      -3.23869210      -0.70524308      -0.02886371
H        3.93084700       1.34164100       0.63762100      12.16777644      29.99053612      33.05339369
H        3.98045800      -0.30647800       1.48202500       0.55663567       1.76637057       1.28201022
H        5.31326900       1.30445600      -0.47263800       3.17016944      -0.07338278       1.32949399
H        5.19139200      -0.08863800      -0.78158100      -2.08149210      -4.78865478      -3.21034642
H        6.56029900      -2.14050300       0.28507400      -4.04661440      -5.17700846      -0.08001873
H        9.26322600      -1.93754600       0.61593200      -1.37778723      -1.52476942       0.30171976
H       10.31750400       1.50206300       1.46361000      -2.14005326      -2.11296717      -1.04573376
H       10.64989600      -0.22623600       2.02698400      -0.68950813       1.74521360      -4.69545339
H       10.89178500       0.67443500       0.09989500       0.21733297      -1.75412521      -0.41337268
H        7.71975500       1.94723000       0.46701800       1.99680450      -3.08296522       0.36696964
B        8.07809300      -0.37501700       4.15854100     -18.72645226      -5.74140573       1.81988710
F        7.64699400      -1.71686300       3.28171300       0.14778159       3.49626571       1.47303560
F        7.00984500       0.59066700       4.08354100       3.25395241      -1.12594601      -0.29917427
F        9.24835800      -0.46756200       4.10986300      13.70323345       1.52970478       0.01948779
F        7.46500300      -1.22000300       5.78344900       1.71088475       1.98158798      -3.63264652
48
Properties=species:S:1:pos:R:3:forces:R:3 energy=-41231.1835595333 pbc="F F F"
C       -3.40969600       0.57831700       1.45039200      15.64513331     -31.45150268      13.94721247
C       -2.42173100       0.50630500       0.50538300       5.74414412       2.10971747      -9.58650178
N       -1.00176100      -0.01744100       0.46964400      -1.36257901       2.86058510       2.38421270
C       -0.56707100      -1.36001000       0.58351800      -2.82059731       0.08849751      -0.05586221
C        0.64571500      -1.29207200       1.04230900       9.19893991      -3.14808963       3.88057893
N        1.01930300       0.07198200       1.28173400      -8.26757836      -9.76662710      -0.22812060
C        2.13024200       0.54997400       1.34946500      26.06278581       5.30297570       1.32996090
C        0.02285900       0.85042600       1.18218900     -11.44138008     -11.76959973       2.09156829
H       -3.06357600       0.88204100       2.32188500       2.80955095       1.72317995       5.83344314
H       -3.76397000       1.20463700       1.24406700     -21.90276105      32.02334937     -11.47735631
H       -3.80724600      -0.34894400       1.71324500      -2.20030096      -1.60779024      -0.26669061
H       -2.33226800       1.55588000      -0.02321500       0.41363101      -1.61410042       1.68068269
H       -2.91681500       0.03857500      -0.31850100      -0.24769215      -1.52592059      -1.60258452
H       -1.10884100      -2.26811800       0.74174500      -1.43173794      -0.79688299      -0.94534141
H        1.55967000      -2.04260500       1.46354100      -3.53668283       2.04964705      -1.88756880
H        2.36608900       1.64799500       1.84276600      -1.46867288      -3.27941936      -1.00145413
H        3.15695400      -0.39938100       1.91807800      -4.59070737       3.55579333      -0.82642197
H        2.93150600       0.58842100       0.29051600      -4.43378462       0.81715380       2.69370135
H        0.08784200       1.67003100       0.85487500       1.14273010      15.30027966      -5.27242177
B        0.10289300      -0.56000300       4.17969800       8.21999505     -12.12023479       5.44263774
F        0.06783700      -1.67795300       3.39995600      -0.26883234       0.73224803      -2.51062684
F       -0.28149100       0.54747100       4.31275400      -6.77174085      13.38907107      -1.99695686
F        1.69917200      -0.17420400       4.61710100      -1.14488181      -1.57475032      -1.31424961
F       -0.11207600      -1.18944200       5.49842900      -0.00885058      -0.41274252       0.40970171
C        4.84864300       0.00613400       0.46085700      -8.98891051      -4.20556043     -16.85461622
C        5.53227700      -0.13337900      -0.86187100       0.25050184       0.96961383      -9.35734436
N        6.84592200      -0.46584600      -0.65394800      15.02141140       2.35770526       2.71535474
C        7.64397500      -1.60795600      -0.38397900     -29.24947033     -10.62574673      -5.20112715
C        8.77974300      -1.46383000      -0.08626500       1.94136568     -45.14485689       6.76549368
N        9.25628400      -0.54294200      -0.23400500      17.24598390      49.61463072      -6.05002122
C       10.65602000       0.30621100       0.22809000      16.84923097     -44.43140040      -3.36251323
C        8.06888100       0.45181100      -0.41052000      -2.51628857     -17.16510820       2.61112117
H        5.29397400       0.60386400       0.87614800      10.41355954      12.36307257      12.47818756
H        4.18139000       1.00801000      -0.22397100       0.95702600      -2.66742501       2.84913055
H        4.03189000      -0.53462900       0.45801200      -3.70492151      -4.56051760       2.28461785
H        5.87237700       1.16486300      -1.77465200      -1.93951173      -4.15639715       3.24743584
H        5.31414900      -0.98015000      -1.80726400      -1.04353440       2.68606371       3.55600973
H        6.70692100      -2.61461800      -0.61570400       4.90660812       3.13543776       1.25565561
H        9.49425500      -2.48414800      -0.35162900      -2.10967226       2.39904668       2.05283019
H       10.34760800       0.97133400       0.11738000     -17.28023594      39.68693043      -2.42577149
H       10.82270900      -0.72494700       0.71801000       1.81415445       3.36897077       1.62863717
H       11.25156400       0.31503600      -1.01550300      -1.58796614      -0.59401627       4.91239055
H        8.16779900       1.30841100      -0.58741800       1.68284351      16.08253067      -3.36102516
B        8.14380100      -0.91683800       3.07042700       3.83947215       4.71450981      -8.04155413
F        7.62131900      -1.97912800       1.91830000       1.63177966       2.76276528       2.53950048
F        7.49777500       0.42719000       3.05030900       0.55413826      -0.32411930      -3.35687851
F        9.67699900      -0.66288200       3.33097800      -2.02757541      -0.83339686      -2.90395932
F        7.83565100      -1.16707000       4.20998400      -3.97748968      -6.30307753      11.28919965
48
Properties=species:S:1:pos:R:3:forces:R:3 energy=-41236.3913936212 pbc="F F F"
C       -3.25087300       0.88430500       1.13617800       0.72914631      12.99396766       6.48356665
C       -2.08131300       0.72183700       0.41233200     -24.14462421       9.48661907     -13.47567651
N       -0.94658400       0.50778100       0.39270300      24.80985003      -4.27479269       6.10799986
C       -0.48992000      -0.80098500       0.65444800       2.24685474      -2.54390090      -1.41911889
C        0.91521100      -0.57073200       0.65961600      -1.22840904      -3.47738801       2.19705690
N        1.20489700       0.78308000       0.95582200       0.92558645      -4.44572317       0.16451508
C        2.48751900       1.14635800       1.38029000       8.39580086       0.32114547      -1.96213201
C        0.13106100       1.51126100       1.25304600      -6.13794933       4.61428981      -5.24017899
H       -2.49814000       1.78873500       2.31315400      -1.63120753      -2.90873479      -2.37621562
H       -3.77111200       1.97501500       1.33704500       0.77897800      -2.95454739      -2.40515096
H       -3.67221100       0.31957100       1.80179000      -3.02470208      -5.76435290       4.38209687
H       -1.88330800       2.06423200      -0.39261600      -1.98954162      -3.47249911       2.34479466
H       -2.53674500       0.13534000      -0.56040100       0.87047101       0.64200252       1.36300995
H       -1.03978000      -1.92863900       0.49365400       1.56093031       4.24189359       0.46138785
H        1.33290500      -1.41813000       1.22889000       1.97226283       0.35208658      -0.53766885
H        2.54497100       2.34934000       1.81783200      -0.10223795      -4.57274575      -1.16746360
H        3.03203700       0.13173900       2.00299600      -2.02241666       4.34431701      -1.41753089
H        3.18091400       1.05942900       0.16125400      -2.42968608       0.94682008       4.84044935
H        0.21802100       2.65605500       0.49748500      -0.69137555      -3.54857262       3.13515286
B        0.35681200      -0.02679400       4.45703300     -11.70392518      -1.04671270       1.05387698
F       -0.32963200      -0.99253800       3.33808300       1.44178776       1.57172003       1.67325316
F       -0.50666700       1.26136300       4.18018700       2.21256154      -2.40589422       0.33125930
F        1.58103000       0.09644600       4.25004600       5.95572458       0.51760079      -0.47200474
F       -0.22815700      -0.58361800       5.82633300       2.09958510       1.54269814      -4.02433946
C        5.40580100       0.36590200       1.07462400       0.83648994       8.03387665     -11.15636221
C        6.51341500       0.15149700      -0.09320900     -13.55414602       6.23195295      -5.56469081
N        7.73937300      -0.25340400       0.00050900       6.28033533       9.87576718       0.62422501
C        8.04730900      -1.44061400       0.27426800       7.09837800      -4.57430388       2.35431060
C        9.37113400      -1.30672700       0.44957800      10.24344114     -10.57715518       2.57201006
N       10.20232300       0.00548800       0.54336900     -72.58370109      -6.24517184       2.66549512
C       11.19201300       0.01948900       0.44564700      70.30906103       6.81375084      -0.88864818
C        8.88866400       0.66577700       0.33868300      -0.71522775       4.75654887      -0.61956341
H        5.96737600       0.84510700       1.64239100       5.37242287       4.13862456       8.98126795
H        4.90512800       1.40439500       0.53281800       0.40024897      -4.57100162       2.09770008
H        4.93772500      -0.45659200       1.19920400      -4.52471969      -6.66707759       2.03178510
H        6.49502300       1.29734300      -0.70905900       0.24756874      -4.36183570       1.74559461
H        5.85817600      -0.64304600      -0.66469800       2.04059712       1.53178801      -0.27471773
H        7.77751700      -2.36167600       0.03094800      -3.29348770      -4.93508504      -1.28235803
H       10.38987400      -2.54110400       0.49459100      -4.07954513       4.84531768       0.00708588
H       11.06432000       1.60216600       1.31671500       1.67284459      -1.72565995      -0.76646790
H       12.03784800      -0.66511600       1.38652500      -3.03818080       1.94581714      -3.39774130
H       11.94060500       0.55631900      -0.34848700      -1.94177762      -1.56318351       1.37934266
H        8.84396100       1.86682800       0.17025600      -0.01332060      -3.34566494       0.18195089
B        8.99251000      -0.66072500       3.85446300       0.64120275       1.07833821      -0.01422453
F        8.68241900      -1.65152800       2.81745500       0.26116881       1.47019959       1.01708077
F        8.30964200       0.71004000       3.57083500       1.71796879      -3.99681182       0.81734063
F       10.54985200      -0.38367100       3.64657400      -4.10890482      -0.75599116       1.16006360
F        8.48893600      -1.35575300       5.17581500       1.84825285       2.43681655      -3.70979491
48
Properties=species:S:1:pos:R:3:forces:R:3 energy=-41232.2726205995 pbc="F F F"
C       -2.43164600       0.76321800       1.28159800       7.37948654      70.34082780       6.33306574
C       -1.55950500       0.85453000      -0.10531800       6.08621764       4.49510971      -3.20209985
N        0.06061300       0.66223100       0.19954500      -6.58849883     -12.58432129      -2.26012934
C        0.53679800      -0.83341600       0.25481600       1.35047356       0.94615042      -0.40966499
C        1.96987500      -0.78611700       0.57828000      -7.58350738     -15.06573990      -1.88419901
N        2.10241400       0.44670800       0.68080400      18.55745233       1.81422828       3.90065630
C        3.37359400       1.17247700       0.75647600      -0.85939610     -10.70768373      -4.04550325
C        1.14728000       1.11186700       0.68712600     -13.25487144      20.29759382       1.21950012
H       -1.75405200       1.39536800       1.84563800      -0.05421629      -1.49647384       2.20669260
H       -2.93132400       1.69408500       0.70692600      -1.93064352      -3.22574952       2.60554904
H       -2.47126900       0.11412900       1.13244800      -7.07315421     -65.49104412     -10.99926790
H       -1.12809100       2.08033500      -0.58205300      -3.52226968      -4.20916025       1.37087212
H       -1.90165600       0.07375800      -0.98841800       1.23533528       2.17515510       2.51835278
H       -0.09431100      -1.71810000       0.16288000      -0.50885304       0.08700514      -0.29024058
H        2.35517600      -1.81790700       1.02613400       0.49543194       3.26257059      -1.15386117
H        3.52716100       1.76768100       1.55720600       0.27285400       3.75011549       3.31347426
H        4.01649900      -0.13647000       1.46428400      -2.00513377       3.45784588      -0.89817324
H        4.29624300       0.74167700      -0.21429800      -7.51184772       0.54001551       1.90460517
H        1.06212800       2.21634800       0.87962800       1.34162303      -0.64264376      -0.01113755
B        1.03266300      -0.19408500       4.01330200       2.52307755       4.45212525      -7.09966812
F        0.83869500      -1.20304000       2.97086900      -0.00440513       2.16897589       1.93202681
F        0.25750400       1.11770500       4.10654300       0.10743698      -0.57011983      -3.81068986
F        2.55828500       0.17997900       4.18182400      -0.50191493      -0.20836274      -2.92243255
F        0.95099100      -0.34452300       5.22981600      -2.11694920      -5.84080780      11.50768612
C        5.61246600       0.99579100       0.36442800       5.65036103      -5.42887104      12.71548971
C        6.50501000       0.48880600      -0.57885300       0.33353030      14.74051218      -2.92912794
N        7.83707200       0.39588700      -0.42643500       7.19679811      -6.36419056       2.65974098
C        8.08459300      -0.98707000      -0.28368000      14.20031069       5.32474973       1.38383428
C        9.65050000      -0.79091600      -0.01913000      -5.46286111      -6.01333794       0.03054120
N       10.09433700       0.66588200       0.11349400       7.24952338     -21.75327224       1.96742330
C       11.29331000       0.71062700       0.36597000      21.19361697       4.82250749       6.04238780
C        9.10081200       1.09788600      -0.08890200     -32.11091260      23.52085239      -4.61716543
H        6.21885600       1.05133400       1.52186800      -1.50034173       0.85899128      -3.92952886
H        4.79443200       1.60016000       0.27909800       2.75008527       5.08076057      -0.40584392
H        4.97307200       0.07500900       0.91097200       2.90381289       1.09856504      -1.40135919
H        6.82396300       1.73354200      -1.08154200      -2.21206148      -2.72430897       0.02665015
H        6.04761400       0.16714900      -1.38510400      -1.95707742      -3.82375531      -5.79992536
H        7.76635000      -1.94930800      -0.22087000      -2.80138080      -3.36966242      -0.21043203
H       10.30032700      -1.60831200       0.31584400       0.69400032       0.41904860      -0.01657630
H       11.33788800       1.64947300       1.06021700       1.18448722      -0.43302105      -1.86611425
H       12.20789200       0.04572800       1.17166700      -4.62414928       0.80358140      -2.95314889
H       11.83306700       0.80663300      -0.66294300       0.15868728       0.30871438       1.90957302
H        8.84126000       2.42045300       0.17490900       0.96513215      -5.02840039      -1.46068657
B        9.31093400      -0.17264600       3.51407500     -11.44084570      -2.40120204       1.06567148
F        8.79403400      -1.14855400       2.42363800       0.52223795       0.38168484      -0.14598047
F        8.32383600       0.90442800       3.25818700       2.84209196      -0.00637410      -0.01910767
F       10.56319400      -0.30745000       3.38353300       6.10575165       1.25836797       0.21246125
F        8.63776200      -0.77161300       4.76866800       2.31817660       0.99263600      -2.05934445
48
Properties=species:S:1:pos:R:3:forces:R:3 energy=-41148.2644792259 pbc="F F F"
C       -2.87315800       0.61344200       0.28140000      18.94897184     -13.32517629      14.20783126
C       -1.72121500       0.27029500      -0.85975000    -104.94500769      32.06447463       2.14345320
N       -0.85591000       0.02424500      -0.92477100     111.46857825     -32.43116059      -2.11317451
C       -0.06987200      -1.53712000      -0.58089400       2.52848355       6.34179059      -0.37220271
C        1.31084700      -1.31702500      -0.30370900     -16.99374611      30.15925866      -7.63467678
N        1.69708100       0.15913400      -0.33396000      -4.48639225      -7.44720418      -0.06733453
C        2.87206600       0.73829000       0.08170400       7.06055414      -6.57726658       1.84152139
C        0.70085800       1.04175700      -0.25676600      -7.29725857      -6.99770718       4.39726065
H       -2.16360100       1.07583500       1.09630500      -3.12544466      -0.98365140      -2.11104541
H       -3.39945700       1.09936200      -0.13867600     -14.94305779      14.09619020     -11.15704699
H       -3.27353200      -0.33057400       0.57040200      -0.54234722      -0.16589479       0.60592544
H       -1.85787000       1.46927500      -1.51909100      -0.67633291      -0.83642988       0.29202019
H       -2.29600200      -0.30879600      -1.71795200      -2.41637251      -0.13704607      -0.26720555
H       -0.76965700      -2.32035200      -0.73989500      -0.24161102      -1.08191594      -0.21136214
H        1.57276600      -2.04626400      -0.13353100      13.87221179     -26.09097709       6.72832550
H        2.85185100       1.85538900       0.36239300      -0.44841496      -3.01591731      -0.11612296
H        3.42750900      -0.32513300       0.84842800      -2.83278288       6.96484574      -2.49210612
H        3.50476400       0.49526300      -0.82097000      -0.73215515       1.55924407       0.51819769
H        0.60267000       1.94426400      -0.61827800       0.22148635       6.65972966      -3.62839044
B        0.53437700      -0.75252200       3.01664300      21.42590379      44.75701843      37.90139847
F        0.22803900      -1.38240700       2.33547200     -18.51059455     -39.93844029     -46.75454089
F       -0.30506000       0.66681000       2.82956700       3.54227736      -5.91892675       1.70379216
F        1.89416800      -0.30199400       3.07371100      -7.54002502      -2.29331648       1.49515324
F        0.20043000      -1.10094500       4.23868200       1.58175209       3.72720874       4.68344939
C        5.56541200       0.21814700      -0.06886100      -3.09705938      10.24292901       6.85333985
C        6.25749500       0.03275300      -1.28251600      -1.27797154       3.26221387      -5.29650569
N        7.65435100      -0.21798800      -0.72950500      -6.61389439      -8.51499382      -2.41594383
C        8.00311700      -1.71496300      -1.02410600       3.07991336       2.70666095      -0.75038380
C        9.36824500      -1.32576400      -0.23988600      -7.38932321     -10.17424681       1.42685140
N        9.84337300      -0.19006500      -0.27334900     -12.90540217       1.42454321       3.55883118
C       10.77026600       0.43035100      -0.58231700      -3.16890481       7.79678151       2.09654323
C        8.46176100       0.80284900      -0.44694000       5.18067450     -23.90396443      -8.51960338
H        5.94935300       0.94074100       0.93109300       0.51595061      -2.16467312      -2.33472727
H        4.37002900       1.38225500      -0.09369600       6.83114191      -2.78883509      -0.52055954
H        4.87864700      -0.39810700       0.29915500      -2.60766808      -4.34883113       1.83244372
H        6.28829000       1.27613300      -1.53884800       0.63521144      -1.69841928      -0.79850611
H        5.38249100      -0.49848900      -2.07709800       2.73175527       0.34069531       0.88914299
H        7.17175300      -2.44664200      -1.02017300      -1.91011120      -1.59288614       0.50175653
H        9.84419200      -2.28237600      -0.35678000       2.88381346      -4.00139919      -0.35224848
H       10.96406900       1.27223100       0.17529300      -0.13451694       2.19017372       1.75498469
H       11.42650900      -0.40225600       0.73322500       1.17294462       0.21415002       0.23272876
H       11.56550400       0.51814500      -0.83679000      22.09339106       1.30452050      -8.23525489
H        8.44713300       1.55426100      -0.22024100      -0.42924015      30.73954141       9.71490040
B        8.53663400      -0.92194900       2.65436000       6.97800223      10.61340910      12.70810571
F        8.11844000      -1.84794300       2.06795600      -5.50716132     -12.11512108      -9.54270964
F        7.85640100       0.26229000       3.07405700      -1.28417656       2.96960982      -2.05682775
F       10.21393100      -0.75175500       3.22844400      -0.28881488       0.10048542      -1.59898056
F        8.34987200      -1.38905500       4.21722400      -0.42650952      -1.69573941       1.25458715
48
Properties=species:S:1:pos:R:3:forces:R:3 energy=-41206.4486444933 pbc="F F F"
C       -2.55537200       0.79651400       1.20561200     -15.50038164      -2.89961553      -9.72131221
C       -1.93943500       0.68270800      -0.16901500       3.53494999       1.98536133       3.38083239
N       -0.59514500       0.14646900       0.15004800       0.99693940       7.54884123      -1.21467178
C       -0.32678700      -1.19280500       0.27425100      19.95639142      27.80664512       5.72906241
C        1.01847800      -0.93912300       0.67699200       8.87461314     -11.04671581       3.56098402
N        1.84251200       0.19374400       0.76030900     -90.46105513     -56.05855862     -17.32556596
C        2.54158600       0.77996200       0.90254800      85.80539134      57.51632106      16.11676480
C        0.39743500       1.19199900       0.43170300       0.98471893      -2.27627178      -0.62331356
H       -2.37680700       1.15310800       2.09967400       2.89568803       2.70039536       5.61366726
H       -3.56625400       1.52953000       0.61823500       3.38366558      -1.41772047       3.41162570
H       -3.52467000      -0.10002800       1.29489100       4.72174187       2.41319883       0.36569461
H       -1.83868500       1.61751000      -0.72829500       0.12351967       0.33131308      -0.03684562
H       -2.21026700      -0.06577200      -0.78946000      -3.31589052      -3.14241948      -2.76076365
H       -0.74491200      -1.85540500       0.12917200     -15.86049791     -24.35663878      -5.39211108
H        2.01599500      -2.02087600       0.50585400      -4.25452213       3.95333499       1.01042223
H        2.84119700       1.81312000       1.57243300      -1.83635046      -2.37944673      -1.98197034
H        3.19315400      -0.07408700       1.63535600       1.83286696       2.40423854      -0.79445445
H        3.32750700       0.81563600      -0.33620500      -1.20039534       1.53778080       3.18011484
H        0.71850000       2.43854600       0.35167900      -2.28432284      -4.58899279      -0.04630269
B        0.61236700      -0.11961700       4.13615500       2.33672453      -1.60158323      -2.05492436
F        0.53514500      -1.35414800       2.85430500       0.38142741       2.21348602      -0.14566011
F       -0.24259400       0.94209700       3.59539200       2.31342594      -2.51901247       1.56957991
F        2.09959300      -0.03735600       4.16645200      -3.73994227       0.97350946      -0.50311502
F        0.24698100      -0.89000600       5.24294400      -0.62568303       1.32825766      -1.26519867
C        5.35300200      -0.26961900       0.01167500       9.88071481      -8.43756813       9.18420383
C        6.64571300      -0.12750300      -1.19311100      -4.44201294     -11.99995852       0.30591580
N        7.89281000      -0.71024000      -0.58862900     -16.00698085      -5.45774758      -3.92555418
C        8.47220800      -2.22182800      -0.48585200     -35.45576866     -15.07529328      -4.75193967
C        9.42022100      -1.71781200      -0.39686100      36.73840914      -1.47082145       5.41361398
N       10.08793900      -0.38145300      -0.08695800     -43.55581709      -5.60356890      -9.00353242
C       11.08906000      -0.51138500       0.09229200      58.16178057      -0.82034111      10.93934813
C        8.91027100      -0.12900200      -0.30037900       1.68474695      22.42281917       2.06576927
H        6.06175200       0.33473700       0.84835000      -2.43942453      -2.06780825      -1.38723457
H        4.98035400       0.50057700      -0.36872800      -6.99259455       7.20800894      -3.65668078
H        4.92707300      -1.36961100       0.68137200       1.13878751       4.26042595      -3.45821534
H        6.34038300       0.78871000      -1.21471700      -0.39279297       8.43366366      -1.46487182
H        5.86698900      -0.89482600      -1.91205000       3.70209835       2.29661353       0.81165370
H        7.35547200      -3.10268900      -0.55406400       3.11141552       2.13836334       0.18861163
H       10.15027500      -2.56647300       0.00116200       0.77989450       1.54162295      -0.75849255
H       11.18443300       0.60670000       0.14236700       2.49636601       2.63229828       2.51928994
H       11.91774900      -1.06968400       0.90791200      -3.42232894       0.58123015      -0.73811225
H       12.00328700      -0.30137200      -0.62819200      -1.04866384      -1.41068175      -1.80701983
H        9.16702400       1.02824400      -0.38695500      -3.04333927       0.26528018      -0.43265537
B        9.07280000      -1.18287800       3.20995300       2.42399905       6.68467523     -12.90105332
F        8.53951300      -2.16135800       2.53162400      -2.51702895      -8.45745041      -8.04061077
F        8.44239600      -0.17349700       2.94493200      -6.62779700      12.37182091      -4.25130362
F       10.24496900      -0.97714700       3.40442000      17.36620135       3.07285366      -1.61786976
F        8.75581600      -1.67249600       4.18924900     -10.61583875     -13.53091020      26.68908802
48
Properties=species:S:1:pos:R:3:forces:R:3 energy=-41223.8270446809 pbc="F F F"
C       -3.26553500       0.69958800      -0.24147300     -28.08675181      22.44190879      25.40495896
C       -2.35800900       0.32847200      -0.73877400      31.79250893      -5.99672874     -33.73069384
N       -0.88972300       0.13287600      -0.80278600      -7.58270431      -2.71665710       0.68413537
C       -0.68837100      -1.22798200      -0.47829400       8.00453254       6.29948589       4.46235899
C        0.76161600      -1.23987400      -0.51241800       3.70323343       2.83576039       2.75390305
N        1.30263900       0.33141600      -0.34796300      -5.39198864      -5.85549440      -0.55481307
C        2.61135700       0.82387400      -0.08524100     -10.63147307      -9.96901053      15.88018980
C        0.15943800       0.88324100      -0.84718300       5.25966628       8.41130671       1.47278273
H       -2.64182800       1.18559300       1.02769300      -2.04524135      -1.03860097      -3.19677369
H       -3.96332900       1.71215800      -0.38954900       1.17835849      -3.84306684       0.39994726
H       -3.52985200      -0.11420400       0.18973600      -6.92491716      -6.63761736       5.09856472
H       -2.29148800       1.86051700      -1.65209000       1.29807329      -3.15377867       0.95970304
H       -2.76604900      -0.05171800      -1.94213600       2.02097354      -0.29530448       3.21752706
H       -0.84108900      -1.99771400      -1.01026300      -4.29362483      -7.97444452      -5.37623164
H        1.72313600      -1.75954600      -0.22180500      -0.90329686      -1.27527723      -0.06698240
H        2.82596300       1.63258300       0.26714000       2.20236516      12.25500995       5.19627298
H        3.22861800      -0.13390600       0.66709200      -3.62741490       3.69761646      -1.67486949
H        2.95160300       0.57748600      -0.81174300       9.40689734      -5.52798906     -19.48628641
H        0.39345600       2.01772800      -0.74772000      -2.20356362      -0.92266810      -0.72704525
B        0.46675800      -0.52365800       3.19575800       1.34150305       4.74433825      -8.61229165
F        0.03086700      -1.33030500       2.11498600       0.90542947      -0.75208414      -0.66565707
F       -0.13583100       0.92887100       2.50803200       0.02383058      -1.52712002       1.48905349
F        1.79063000       0.01889100       3.00801600      -0.55762879      -1.50616274       1.37582399
F       -0.13258400      -0.93028600       4.22339300      -1.70954678      -0.91973093       6.14034593
C        4.90609800      -0.05072900       0.21264900       1.23580219      -1.70852828      -1.32618857
C        5.46872400      -0.21476200      -1.33342600       0.61848494       0.87087549      -0.40862349
N        7.38709000      -0.71076200      -0.74023500     -12.86418769     -15.04234209      -5.41671827
C        7.85480600      -2.22316000      -0.97565200      -0.66150569       6.72716593       0.34808871
C        9.27732800      -1.76854900      -0.52947900     -10.05070098     -31.83902255      -3.89278877
N        9.39829100      -0.65183300      -0.32614400       3.77158783      19.51150854       2.77858770
C       10.81312300      -0.39209300      -0.10709900      -9.50271452      38.75055150     -27.97672405
C        8.05301100       0.19928100      -0.49564400      10.93340078     -11.21643060       5.35015560
H        5.72797700       0.48476800       1.04472700      -2.10617221      -2.30712677      -2.08258465
H        4.12959300       0.57570700      -0.44589400       4.03720651      -0.36651549       2.56122013
H        4.34373400      -1.25897500       0.33954100       2.17055789       3.72107580       0.41930417
H        5.66262900       0.87413100      -1.83121400      -0.24648068      -1.00264962       0.23584295
H        5.26975300      -1.05100800      -2.17364300      -0.10269315       0.37083842       0.79294227
H        6.89333000      -2.92140600      -0.84574900       2.81225054       0.90942138       0.09139071
H        9.55616200      -3.03927400      -0.37659100       1.55891703       5.37569088       0.17887961
H       10.54184800       0.67784000       0.20820800       3.10446545      -1.42124705       1.15236252
H       10.95402600      -0.97479300       0.33798000      10.94058909     -31.34711189      24.90838376
H       11.10405100      -0.18765000      -1.26756300       1.01154392      -1.40523297       3.56153488
H        8.06548500       1.04323800      -0.58645100       0.46148722      20.92417246      -1.94804446
B        8.29973500      -1.30691200       2.93290000     -15.01050728       0.81699364      -6.18719589
F        8.00328200      -2.03068200       1.35233400       1.16109509       2.35242933       6.81018078
F        7.33202400       0.08411400       2.74099600       3.18467330      -5.14661527      -0.64121813
F        9.44413000      -1.06390800       3.10538800      12.62284251       3.41441791      -0.23337534
F        7.77904000      -1.85692300       4.01274100      -2.26550728      -1.69935347       0.49094159
48
Properties=species:S:1:pos:R:3:forces:R:3 energy=-41208.4490535981 pbc="F F F"
C       -2.14073000       0.51852900       0.83509000      -1.37093638       1.11619497       0.80211385
C       -1.28309500       0.40136400      -0.81229800      31.86140481     -73.15936985       9.43778955
N        0.13635000      -0.35473300      -0.30099000     -10.06936182      34.50571258      -4.05707161
C        0.35053700      -1.43507200      -0.14419300       9.85326376     -30.83675445       4.69633215
C        1.78164400      -1.25939400       0.31563100       4.81373293     -13.04792919       0.92255166
N        2.27137400       0.02053700       0.34175600       4.17937339      -9.32574992      -3.22280886
C        3.68720500       0.25962100       0.38013500     -14.06437664       8.24080634     -13.08435155
C        1.20085400       0.53989300       0.31719200     -20.58458208      17.74092766      -3.86152471
H       -1.50409900       0.96006800       1.81101700      -1.20318470      -1.06417427      -3.55004612
H       -2.94524800       1.42770000       0.39852700       2.19430979      -3.58600204       2.29451673
H       -2.61908400      -0.53720300       1.30627900       1.08087991       3.30446019      -2.25758608
H       -1.54386400       0.98587100      -0.80397400     -28.26099156      72.86188102      -2.13852251
H       -1.80031200      -0.41100000      -1.12430600      -2.09709313      -2.76713991      -2.48121942
H       -0.18607900      -2.50404000      -0.14103100       1.08490931       3.15734714      -0.36627541
H        2.70063700      -2.12145000       0.35164900      -3.45621711       2.56263226      -0.19269465
H        3.41739100       1.15787300       1.16200200      -7.26166713       0.75402268      -0.30891932
H        4.08788900      -0.37382200       1.40154400     -24.11504925      -1.69614392      -5.96326045
H        4.24149600       0.33061600      -0.73837400      -5.70288290       0.64748566       2.00916207
H        0.59593500       1.90707100      -0.01913600       3.46391311      -4.85030761       1.20649703
B        1.23952600      -0.70732000       3.64110500      -3.08506069      -0.10457167      -0.93769296
F        0.87546800      -1.74288400       2.49257600       0.36473676       2.48574335      -0.13422216
F        0.48818000       0.59299300       3.65181900       1.53283004      -3.16742650      -0.65679594
F        2.57201000      -0.61385000       3.61217400       3.85426162       1.87083716      -1.76655199
F        1.05420000      -1.51659600       4.72174100      -2.00555232      -0.64482566       2.05944980
C        4.94145800       0.31576700       1.02495500      13.65132554       6.82027061       3.30198384
C        5.68283000       0.29178000      -0.07415500       9.60463080     -11.71886506      -0.05582369
N        7.03381500      -0.49733000       0.37859500      -8.67592836      32.62426147       2.49616074
C        7.51772200      -1.50846700       0.22310100       7.07261354     -27.90802707      -1.64816238
C        8.78641200      -1.65523900       0.59497100       3.22268427       7.89626140       0.05713338
N        9.35755900       0.12920200       0.72199600     -12.34330919      -8.09616096      -2.96336253
C       10.70029900       0.25579300       1.02243000       0.40048379       9.62263653      -2.84718150
C        7.96284700       0.78838400       0.29939000       6.90767695      -7.56769630       1.06472940
H        5.13915000       0.83534600       1.88582200       5.25080162       1.28553788       5.15458606
H        4.31318800       1.20230800       1.06780200       2.99801433       3.63833419      -2.66815660
H        4.53429000      -0.46204700       1.62112900      23.29899587     -15.08838057      22.58834947
H        5.52715200       1.18004400      -0.40179000       1.34129381       7.82410364      -4.41473577
H        5.43692300      -0.61426100      -0.56929200      -0.99574070      -0.40565462      -2.32585573
H        6.79672500      -2.52068400       0.40909300       1.91982051       2.80117175      -1.45787684
H        9.70422800      -2.03900200       0.80274900       2.66561796      -3.31149104       0.51960654
H       10.51476000       1.69977000       1.51136400       2.07439441      -5.09539271      -1.52233467
H       10.93075800      -0.38390400       1.83709200       1.46585201      -1.42301369       1.60193884
H       11.10186700       0.29267700      -0.11105100       1.34121755      -0.31502979       3.25758219
H        8.38785100       1.70383700       0.61819100      -2.34005054       3.37694844       1.33922941
B        8.02174200      -0.94855800       4.00632400       3.19706762       4.98822579       0.72269347
F        8.02316800      -1.43671400       2.74064700      -0.48888961      -2.63581242      -0.24775325
F        7.54048100       0.42181300       3.74865600      -0.10635462      -1.52414664       1.57999685
F        9.74101000      -0.40961800       3.99939000      -2.99308149      -1.35181105       0.40958837
F        7.69918300      -1.54965400       5.23151400       0.51276211       0.55359588      -2.38533901
48
Properties=species:S:1:pos:R:3:forces:R:3 energy=-41125.0713481531 pbc="F F F"
C       -2.14864900       0.43145500       0.81053300      -2.26083036       8.58320655      -2.85411379
C       -1.31518800       0.37430500      -0.35103500       1.93711018      -8.39126051     -10.55343323
N        0.11735600      -0.09808800      -0.38743000       4.90648096      -6.34405265       1.63043661
C        0.63803200      -1.47077800      -0.26404500      14.42730983      17.97500453       0.14492185
C        2.04454900      -1.63226400       0.12773700     -17.12357544      16.17707532      -4.84167869
N        2.34555000       0.03826100       0.16977500      73.09690610     -60.34326113      23.18759938
C        3.87660400       0.47451900       0.54948400     -92.91210440    -200.19387713    -263.15472987
C        1.61264800       0.50980500      -0.05523600     -87.38049435      59.18476464     -24.95383489
H       -1.43479800       0.99953800       1.23467300       3.11485907       0.98501296       6.11310443
H       -2.75952200       1.45923600       0.61149000      -0.31148450      -3.69328222       0.31310623
H       -2.59173200      -0.43607500       1.02937300      -2.23944810      -3.95714766       2.42845986
H       -1.14356900       1.15998700      -1.03395100      -1.04965612       2.86852305      -0.62557813
H       -1.60538700      -0.58254800      -1.25749300      -0.45757333       3.66431469       3.29357685
H        0.18361800      -2.17411900      -0.18100300     -12.75252911     -18.39042966       1.32742187
H        2.69828100      -2.17621400       0.30387500      13.10910077     -11.60241103       3.45570273
H        3.80997100       1.38224200       1.01381500      -6.40171298      13.16640620       5.79731931
H        4.12202200      -0.52742500       1.29739100     -42.69180175      56.38353765     -15.85069060
H        4.20179100       0.20180500      -0.40375300      -8.50283035       3.11591646      -5.10624518
H        1.05336200       1.47216500      -0.13874500       3.08976213       1.45548816       0.37793908
B        1.27331600      -0.70766800       3.68119100       4.88253810       1.95109076     -15.45978910
F        0.98751700      -1.76919200       2.47980600       1.26043823       3.19385075       3.23120890
F        0.85718300       0.49827300       3.34338800      -1.23175253       2.04022998      -0.42361028
F        3.13081200      -0.22440700       3.61031900      -2.85601990      -1.36195622      -0.78827420
F        1.13388400      -1.23564000       4.71670400      -1.60559709      -5.78706755      12.62929175
C        4.61789300      -0.12873700       0.89911300      76.41660305      -0.32062855     -10.16699446
C        5.48033300      -0.04883800      -0.36437100      15.89733894       6.35425770      13.38299411
N        6.93480400      -0.52570600      -0.28262300       0.24214575       7.47779600       1.75372190
C        7.39668400      -1.72529200       0.03922400       3.83676073      -5.13615889      -0.86471331
C        8.77213000      -1.58844100       0.38276000      -4.10206277      -3.00140639       0.57857674
N        8.95492000      -0.19815900       0.74646400      21.21010024     -15.05374513       3.63111396
C       10.54169900       0.00188900       0.55218900      -9.48883336       7.51705929       4.77569482
C        7.98026200       0.29945500       0.42537800     -20.54020656      19.73963392      -8.12741134
H        5.07113500       0.56233100       1.54509000       4.17213253      -1.48931057       6.68863125
H        3.94152900       0.73997500       0.82062200      57.29807515     235.15007918     232.25552855
H        4.18764600      -0.82073900       1.43982800      12.06956949     -99.13527758      53.69524495
H        5.56362400       0.82102800      -0.93598000       0.52555986       3.78970923      -0.02541074
H        5.28551600      -0.59876900      -0.96998300      -6.77432788     -15.83120188     -15.44288782
H        6.83642000      -2.53144600      -0.43233600       0.28114426      -1.08720682       0.40214210
H        9.43213700      -2.43227000       0.44330000       1.19234441      -0.24065899       0.63427135
H       10.56107700       0.94704200       1.07881100       0.57399551       2.31516150      -1.31378400
H       10.82710500      -0.39597800       1.35268200       3.86666607      -6.84505525       7.51076061
H       11.02249200      -0.04250000      -0.24746800       4.77809945      -0.94554844      -9.42722411
H        8.09202500       1.53606800       0.20758600      -1.38825870      -3.93184399       0.84080274
B        8.12601400      -0.97207400       3.71426900      -9.14381955       3.96631603       5.11571321
F        7.86209100      -1.70940700       2.73511000      -4.07293262      -5.95750382      -5.76970671
F        7.63285200       0.36384500       3.45570400      -1.24318701      -0.46793394       0.83563401
F        9.30617700      -0.90873600       3.88237900      14.32844625       0.98128418       3.30049490
F        7.69410000      -1.66268300       5.33300800       0.00303788       1.51085598      -3.59087167
48
Properties=species:S:1:pos:R:3:forces:R:3 energy=-41220.7397950293 pbc="F F F"
C       -3.07096100       0.90713300      -0.20587500      -0.25712078       2.99548647      11.94813383
C       -2.04764900       0.78334800      -1.07756800       4.91908336       5.83535932     -12.37389529
N       -0.51734300       0.31536700      -0.92157900     -24.80494252       3.50917369      -1.68396734
C       -0.41272400      -1.04878000      -0.74821600     -24.18764972       7.96907201       1.21246778
C        0.62167000      -0.87585500      -0.78803600      59.23914669     -13.98497960       4.14114961
N        1.40998700       0.20668800      -0.55373700      14.68502533      -4.64802940       0.56798720
C        3.02004800       0.76388000      -0.55596500     -30.32114888     -24.71685332      52.32979421
C        0.51146900       0.93656300      -0.77999300      -3.53244440      22.16300624       0.11644809
H       -2.20923400       1.43544200       0.63688800      -3.68124599      -2.31836628      -0.52908172
H       -3.78176400       1.71644600      -0.09472500      -0.35635484       0.89212373      -1.72215747
H       -3.59838500       0.03472900       0.14709300       0.22644840      -1.07278822       0.61527274
H       -2.01279600       1.97344700      -1.69488100       0.70921100      -4.27291807       2.35423139
H       -2.40033000       0.21157200      -1.91920100       0.64797309      -1.46635354      -1.34538852
H       -1.02223500      -1.61707500      -0.83026900     -16.47333040     -14.86730701      -1.59798795
H        1.78050700      -1.57162700      -0.43130900      -5.13437362      -0.44640951      -2.03605553
H        2.66863100       2.18433700      -0.03551300       0.74324047      -5.06219219      -1.27059637
H        3.28948000       0.25113600       0.43522500       0.15048121       0.62367183      -2.65788473
H        3.30074900       1.10216900      -1.08057000      25.60144596      27.10373279     -47.78640821
H        0.52516300       1.97930400      -0.52073400      -0.25192148       1.45437321      -0.47476399
B        0.44894600      -0.20498600       2.73240500       5.60658364       1.42872337       2.87858703
F       -0.12776400      -0.98272300       1.96027700      -2.80342349      -8.09252602      -8.90854993
F       -0.19907800       0.90575700       2.66478400      -3.55283816      10.23813156      -1.97197216
F        1.81363800      -0.00025700       2.75585600       1.76962447      -0.39599784      -1.10515781
F        0.00953100      -0.53807800       3.92906200      -1.01882692      -3.08111762       8.64552068
C        5.52607700       0.65289500       0.55877800     -17.06200679      -6.26531839      -5.71428182
C        6.31023200       0.42411400      -0.56885400       5.26742984      -4.19595582     -13.40474453
N        7.81367600      -0.05248000      -0.29607800     -22.90161787      -2.09507114      -2.83596981
C        8.23763400      -1.52085200      -0.29876500     -21.12073131       4.10536477       0.02469655
C        9.23022200      -1.15416700      -0.22847600      44.57805790      -2.15335549       5.00309747
N        9.60861100       0.08492500      -0.26604100      16.13372670       1.65987336       2.65619885
C       11.19067100       0.19291100       0.12880600     -11.60137783      17.57877233      -4.83845215
C        8.51873300       0.85987100       0.15377000       5.51918766      -0.02825146       4.45291539
H        6.23056800       0.87404200       1.06983900       9.41761864       4.28404266      11.17383249
H        4.68899600       1.36444200       0.23185000       2.38919382       0.00110782       1.64872390
H        4.81230300      -0.36096800       0.75599100       3.35640002       3.07378859       0.76840502
H        6.49236700       1.39974500      -1.18303100      -0.34805071      -1.48682345       1.00514684
H        6.11327700      -0.52897400      -1.66249700      -0.38015162       3.73802616       4.61511862
H        7.56397400      -1.99713600      -0.42687000     -17.40231098     -13.92770067      -2.86589667
H       10.25880800      -2.29299100       0.57295800      -2.88905732       3.27267307      -2.17738719
H       11.23841300       1.48347100       0.71329400      -0.33313617      -5.33153945      -1.77350861
H       11.55886300      -0.34504500       0.71989600       5.66089514     -11.05316128      11.66722518
H       11.87687800       0.43009400      -0.55788700       2.74485576       0.42546284      -5.22199019
H        8.97782400       1.64548800      -0.19253400       0.50363799       8.68232431      -2.13504643
B        9.00665000      -0.60096200       3.47943200      -5.30436270      -0.16424417      -0.75456574
F        8.58808800      -1.88478100       2.25044400       1.50741395       3.18898772       2.54826203
F        8.27269000       0.76575100       3.05502100       1.31785531      -3.63862630       0.07499394
F       10.31271600      -0.30937500       3.32468300       0.31780293      -0.89496290       0.54052673
F        8.29864500      -1.10634500       4.72441600       2.70345134       1.43170216      -3.80438692
48
Properties=species:S:1:pos:R:3:forces:R:3 energy=-41230.2427806904 pbc="F F F"
C       -2.78852400      -0.82460600       0.05577200     -12.99789421      12.10514074      21.32660668
C       -2.01467600      -1.06673600      -0.83189100      16.34466242       1.58576514     -22.94242194
N       -0.56319100      -1.37482800      -0.61353700       1.49634805       2.57115677       0.41811005
C       -0.33464800      -2.74404700      -0.65150500      12.44753503       6.05974961       3.53330046
C        1.15282200      -2.87683600      -0.24080300      -1.55540678       6.94789290       0.35275323
N        1.85996900      -1.28534900      -0.13800600     -20.52317209      -4.42579185      -3.48055841
C        2.96511300      -0.79067700       0.25255100      -6.00603036      12.41619302     -10.10073518
C        0.62187800      -0.16951200      -0.32900800      -0.16572581     -14.04560657       0.91567312
H       -2.14056200      -0.08157900       1.11173800      -1.60797532      -3.78064139      -3.20982842
H       -3.24545900       0.30950600      -0.13378600      -1.14226828      -4.39166219       0.61689701
H       -3.28933900      -1.67697100       0.48181400      -1.48625885       0.05868572       1.00814654
H       -1.85316900      -0.00055000      -1.47010600      -0.24715441      -3.21634850       1.24003769
H       -2.21009200      -1.74238100      -1.70593400      -0.94587487      -0.15091108       0.86153478
H       -0.47690000      -3.71678300      -0.73758100      -4.32056290      -5.57129433      -1.16275575
H        1.88891300      -3.66051900      -0.03941700       0.03256552      -0.46789344      -0.17492430
H        2.88393900       0.52758700       0.74085100      -2.47443436      -5.96546878      -0.23096011
H        3.46962500      -1.36606300       0.71634300       2.50018124     -12.92535843       8.01228986
H        3.47496100      -0.76119900      -0.96558300      -0.44088640       0.18641481       3.36430190
H        0.42870400       0.84429100      -0.51349900      -0.17828570       2.37313032      -0.75198742
B        0.61255700      -1.91496000       3.26880800      -7.56156974      -0.01478102      -0.94188321
F        0.26657200      -2.73095100       2.15020100      -0.34960266      -1.50993059      -2.00115035
F       -0.22605100      -0.69340400       2.79716400       1.35499361      -0.77835363       1.15270778
F        1.87254100      -1.74921600       3.24228800       5.54636365       1.41558778       1.14075405
F       -0.08309600      -2.53291900       4.35556700       1.19452653       0.98600053      -0.30424896
C        4.66015400       0.19838800       0.29385700       8.76497646      -2.74385267       7.03808755
C        5.78092100      -0.16723500      -0.73356100      -5.74412741       3.75491811      -3.38519582
N        7.35336300      -0.58310800      -0.31893900     -40.96698414       9.10472647       6.72883280
C        7.54128600      -1.61977800      -0.49232200       8.84833055     -48.43467622      -1.19999539
C        8.83358000      -1.94620700       0.11824400     -12.99009546      17.35606146      -3.06860582
N        9.36839800      -0.38801100       0.01351200     -12.04127907      -7.39826120      -2.05302467
C       10.60369000       0.03914400       0.25769400       5.47801446     -21.90932900     -17.06283212
C        8.01480200       0.20389600      -0.54946600      35.43799977      40.90880793      -2.36782066
H        5.12085000       0.27160100       1.37999000      -0.08651216       2.17758638      -2.04867959
H        3.79597400       0.84938200       0.05985100       3.97765561       1.46470099      -0.74970498
H        4.22309900      -0.88357500       0.73342900       9.69519771       7.69547265      -1.08592457
H        5.63690900       0.83882400      -1.33312600       2.64204450      -1.52676165       0.67441798
H        5.12945800      -0.79666700      -1.54013400       2.56932903      -0.34520413       1.82825963
H        6.91616500      -2.53860400      -0.75341300       0.04887314       2.02505496       0.48927427
H        9.54784000      -2.42758000       0.22635900      14.07898352     -11.63151718       1.84001987
H       10.63791800       0.67857400       0.72979100       1.28360196      25.77100880      16.88978952
H       11.05636700      -0.68083000       0.94454300       0.72301495      -1.02583216      -0.31245459
H       11.14827900       0.12294700      -0.73498800       0.57140493       0.28260724       1.38761254
H        8.22054500       1.72105500      -0.17955400      -1.63124101      -5.18827336      -1.18529588
B        8.29897300      -0.97293800       3.38421800       0.52925103      -1.59802758      -5.61087733
F        7.71210800      -1.93058400       2.25538600       2.67454184      -1.24679403      -0.75530088
F        7.10761100      -0.19155200       2.61090500       2.28171175       1.91225262       2.15118528
F        9.86717500      -1.03265500       3.20805900      -5.54536065       1.05713544       0.69116871
F        7.72358100      -1.43111000       4.47432300       0.51419740       0.07290334       2.54444453
48
Properties=species:S:1:pos:R:3:forces:R:3 energy=-41236.3575595181 pbc="F F F"
C       -2.72376600      -0.32066100       0.43218100      -4.20722121      17.72995452      12.09422321
C       -1.86038100      -0.10181500      -0.42985400       7.53858593      -1.03378645     -19.96468338
N       -0.56341500      -0.63207200      -0.28415500       5.84373295       5.56070885       3.33126988
C       -0.03924000      -1.82735500      -0.21954400     -10.84629798     -12.99544164      -2.06588582
C        1.17329300      -1.99625400       0.13717700      11.85875479      -7.26393385       1.75645302
N        1.92675700      -0.84231400       0.07854600     -16.42340586       6.53130634      -0.85829105
C        2.99659500      -0.09873700       0.51255800      -4.51114647      -0.17577047      12.90788306
C        0.51639900       0.13722800       0.27834000       2.43548223      -4.43544503      -2.70588928
H       -2.30571000       0.32223200       1.61717500      -1.28307494      -2.36546961      -3.68377104
H       -3.69806000       0.58404800       0.23309900       3.43727809      -2.32685014       0.27444171
H       -3.36529300      -0.80694900       0.77917600     -10.40841930     -12.39267434       5.59698826
H       -1.66936700       0.89583000      -1.15619600      -1.38215586      -2.72436651       2.76151538
H       -2.36459200      -1.26380100      -1.41778300       1.74062789       3.96780551       1.93734388
H       -1.03956500      -3.16156300      -0.15437800       3.62648383       5.03254993      -0.60963981
H        2.01441500      -2.97327400       0.08666900      -3.77767214       2.53309321       0.31849272
H        3.12991300       0.90837200       1.12504600      -3.23370876      -2.05660444      -0.95787405
H        3.16094200      -0.85416500       1.25030400       2.94513851      -0.66021526       1.67505705
H        3.29883100      -0.00226900      -0.34190600       6.68935849       1.51991508     -10.94890834
H        0.45661600       1.17167000       0.31084000       0.41390972       3.08397649      -0.15589690
B        0.45794400      -1.34752600       3.42082500       4.17077359       1.39129510      -1.00626698
F        0.39343200      -2.52441500       2.49140200      -0.82876411       1.03422494      -1.12719767
F       -0.17146900      -0.09634400       3.30528500      -1.40053024      -0.48290091      -1.44817942
F        1.88286600      -0.97166200       3.37285500       0.02150873      -0.09664627      -1.03648270
F        0.29992100      -1.90677000       4.61386800      -1.65503595      -1.59726973       3.58368289
C        5.12732800       0.22236900       0.76844900       7.47687403       8.26990221      -2.18467226
C        5.87154700      -0.08215900      -0.65952900       6.80289735       7.70766136       6.90118980
N        7.41487200      -0.50437700      -0.49755000     -27.91469749      50.84572170      -1.19348078
C        7.99256500      -1.33362400      -0.43305400      14.87879090     -56.70974886      -0.04964269
C        9.06925400      -1.54614900       0.12347500      14.98512481      -5.10009256       3.40473865
N        9.87615400      -0.31566000       0.15979100     -17.87362132      -2.93597623      -0.71453054
C       11.01162600       0.12110800       0.67623700       8.41513529       4.94454466       0.39089305
C        8.57989400       0.32963800       0.17830500      -0.96976733      11.51140081      -0.38623338
H        6.12539500       0.76593000       1.67928900      -4.13621621      -2.61619894      -3.40070964
H        4.26042800       1.02466400       0.28834800       6.04810734      -1.40820291       2.70709876
H        4.68230400      -0.65241500       0.81030200      -1.53301471      -5.02654712       3.13898336
H        6.15091600       1.04172000      -0.67273100      -0.96443359      -1.62546586      -3.19315479
H        5.62100700      -0.74900900      -1.36969100      -2.52288739      -2.58253222      -3.92659522
H        7.27600700      -2.54599900      -0.24716200       2.64498582       3.61836307      -1.68663670
H        9.70648600      -2.34379300      -0.03695400       1.07067936      -3.06197126       0.14606337
H       10.94819100       1.40362000       1.05859500       0.52645478      -5.42202877      -1.02711162
H       11.60227100      -0.71408800       1.23926900      -1.15770564       2.13823479      -0.17761636
H       11.29356200       0.04617500      -0.46454400       3.62318300       1.62576698       1.97207185
H        8.58570900       1.48824900      -0.05322400      -0.11053316      -2.18322235       0.32832093
B        8.58386800      -1.22005000       3.63714900       5.00966847       6.23524355       0.21777657
F        8.20657700      -1.73830300       2.37889800       0.15432647      -2.20151686       1.73463024
F        8.11489100       0.22744300       3.18336300      -0.13486040      -1.02528447       1.33014159
F       10.16578700      -0.83136900       3.64146500      -3.62042414      -1.75606246      -0.76758967
F        8.51534000      -1.35504100       5.07761400      -1.48079665      -1.00669173      -3.24494252
48
Properties=species:S:1:pos:R:3:forces:R:3 energy=-41211.1852014359 pbc="F F F"
C       -3.23027400      -0.31507100       0.85724800      19.02035491      21.22203853       4.63271234
C       -2.10543200      -0.52293300      -0.01043800     -25.55265131       8.45284388      -7.43825684
N       -1.00105600      -0.61042500      -0.34400100      31.39306916     -11.33582759       0.97320091
C       -0.51682900      -2.14691500       0.06900500      11.27957912       9.07642546       0.63338125
C        1.28455200      -1.99524400       0.43995200     -23.17333002       2.72696299      -4.22199791
N        1.44207800      -0.81603800       0.56269600     -28.17834058      -4.95840300      -8.41832913
C        2.44743000      -0.50544300       0.80699000      44.78405448      24.64372671       2.52739789
C        0.46920200      -0.05777200       0.80309100     -15.91092771      11.89203242      -2.32280067
H       -2.50644800       0.25249700       1.79617600      -3.51903262      -3.04987636      -1.51074407
H       -3.70149800       0.61604000       0.61824500      -0.99570867       0.57311540      -1.16891180
H       -3.79682800      -0.90795200       0.97147100     -15.88438634     -17.87916336       4.37032151
H       -1.91418700       0.75084700      -0.76337400      -2.99206841      -1.55346001       2.34813946
H       -2.74462300      -0.97393900      -1.00727700       1.07305096       0.35728822       1.74802783
H       -1.02221200      -2.98210900       0.14723100      -3.89104644      -6.29310231       0.20033096
H        1.59504400      -2.76141800       0.40091300      10.90048910     -21.11295845      -0.55178283
H        2.77005000       0.70732100       1.20177400      -2.83395293      -3.42705648      -1.41646652
H        3.05322900      -0.81223500       1.47707000       4.59582849      -4.99689353       6.08816907
H        3.44373300      -0.27878500      -0.18248000      -4.01148648      -1.61302746       2.45791602
H        0.20650900       1.10110800       0.25684800       2.81123870      -3.31915671       2.05063938
B        0.32386400      -1.27958400       4.01891300       1.00148851      -1.98751058      -0.31838315
F       -0.05555100      -2.47702300       2.97169100       0.16332320       3.22462295       1.31816524
F       -0.34387300       0.09444400       3.73465200       2.13729300      -4.72615334       0.87001495
F        1.86284400      -1.31013100       3.81907400      -4.55895084       0.73959886       0.90173267
F       -0.11321200      -2.07448300       5.33246500       1.24094233       2.97692750      -3.85369989
C        5.14769100       0.26904100       0.56279300      10.16768766      23.95528465      -4.16048621
C        6.27432300       0.00223100      -0.45640500      -6.39727413       6.80838131      -9.39751201
N        7.64682600      -0.36857800      -0.25128400     -11.32106082      48.67486826      -6.11219729
C        7.79451400      -1.36381100      -0.12390000      16.49481833     -64.35629965       6.89053804
C        9.64496400      -1.54893700       0.14360500     -20.78587350      20.84979363     -16.37094812
N        9.73839800      -0.21563600       0.26884000       4.63272843       1.24697686      -0.95010420
C       11.31411400       0.41764400       0.48898600      22.91703951     -57.38848908     -24.91475505
C        8.64508300       0.51955500      -0.15283000       3.83333646       1.03433225       0.74689240
H        5.93724800       0.80295800       1.65179700      -2.43922142      -1.74615073      -3.53965391
H        4.77501300       1.18439000       0.35658200      -3.51523621       2.56031742      -0.85442367
H        5.19715700      -0.47077800       0.86985900      -3.10490659     -25.96479904      11.94428413
H        6.37298900       1.05065400      -1.02586200       0.00585403      -2.25056251       1.17519512
H        5.66713900      -0.59999700      -1.39566000       2.94409472       0.84278976       3.14208333
H        7.49379600      -2.68669400      -0.40988900      -0.31868019       5.95523228       1.11102850
H        9.99548700      -2.10377000       0.59817300      13.43012375     -21.00365349      16.70238346
H       11.00357400       0.95711300       0.77534300     -24.22139405      49.84079388      25.68605224
H       11.59520800      -0.70557700       1.24369100      -0.28509341       5.55915488      -2.11576241
H       11.77365800       0.12029000      -0.53691200      -0.43819238       2.15650236       1.99772403
H        8.60766700       1.53748000      -0.15451100      -0.52346979       3.65922978       0.00195600
B        8.99718000      -0.89839300       3.73416300      -5.01028803       4.16450260      -9.85532755
F        8.66950700      -1.76921800       2.46397900      -0.26164402       1.30737379       1.45917035
F        8.22530800       0.62493300       3.51306500       0.96253972      -3.38282122       0.02919177
F       10.19856100      -0.59570000       3.61352000       8.41781179       2.18687744      -1.11031244
F        8.63401600      -1.37658000       4.78775100      -4.08551660      -4.32923456       8.59688419
48
Properties=species:S:1:pos:R:3:forces:R:3 energy=-41127.9133255888 pbc="F F F"
C       -1.80910100       0.53776900       0.13344100       4.35835349       5.75309067      -1.17470537
C       -0.49869400       0.49094800      -1.11847800     -37.02792808      14.23821078     -10.40267910
N        0.47599800       0.11138200      -0.76237700      36.33667596     -13.49537487       9.42227366
C        0.95614000      -1.29134800      -0.84780200       6.04472878      10.28815768       3.17069244
C        2.27943900      -1.13514400      -0.30192700      -2.01627587     -15.19075291      -0.35139940
N        2.67936300      -0.00396400      -0.44265900       3.99461578      13.32665938       0.06737092
C        4.16962700       0.67959500       0.10895700    -142.13565228     -51.09744416    -106.19177244
C        1.83554700       0.93778300      -0.68512000      -7.86986189      -4.33058947      -0.29308730
H       -1.35581900       0.98432700       1.05338100       0.39765098      -2.43852545       0.38298030
H       -2.33168100       1.48197900      -0.05598600      -1.20237056      -0.39805181      -1.47930602
H       -2.40527600      -0.30040800       0.08136300      -1.65897310      -2.73020045       0.62035993
H       -0.64395500       1.59239700      -1.54008200       1.00352786      -2.20213828       0.77461027
H       -0.98355100      -0.18218700      -1.84734200      -0.62210394       0.30655220      -0.52390122
H        0.61369100      -2.17499600      -0.83381600      -5.20589640      -8.07222382      -0.23416761
H        3.16795800      -1.91275300      -0.10498400      -2.63331906       1.14639752      -0.31768830
H        4.08738500       1.49085200       0.34014700     203.29526907     -63.47051105      25.44904487
H        4.40851000      -0.10410700       0.58212400      11.52807780     -61.23419640       1.88742333
H        4.45543400       0.75330000      -1.15995500      -5.14168461       0.84854455      -1.49230410
H        1.51896900       1.90455700      -0.79030200       0.71842090       4.04610510      -0.22037043
B        1.67829200      -0.77792200       3.03461300       2.33122705       7.51627528      -0.55622948
F        1.50143200      -1.44591400       1.91949200      -1.89703954      -3.32379796      -1.84048126
F        0.82602500       0.67397700       2.71540200       1.64747763      -2.65332649       0.58103561
F        3.09972200      -0.26301900       2.75700500      -1.50284196      -0.15584176       1.09270158
F        1.43961900      -0.97755600       4.33550800      -0.31596531      -1.30485061       0.33215972
C        4.90644700       0.99249500       0.34612900     190.21471273      58.48398676      37.39451630
C        5.69638400       0.85113700      -0.66781900      13.81700410      10.13048743      -6.76211286
N        7.06032500       0.21044200      -0.31768000     -11.66828225      31.85702938      -0.70738519
C        7.51643900      -0.78378900      -0.53734000       2.19182570     -32.46482455      -4.18113136
C        8.63418800      -0.78500500       0.15464200      13.39348213      -8.71646602       1.41580939
N        9.27519100       0.39356900      -0.24625100      -2.01276404       4.95989506       0.49029345
C       10.59821700       1.00988700       0.39052700      -3.12428008      18.72719768     -19.13175498
C        8.03079600       1.19755700      -0.67010300       4.03977001       5.58571951       3.73273749
H        5.57481200       1.36965200       1.13748500      -2.50137689      -0.75376944       1.39028776
H        3.88185400       1.57890300       0.31966900    -248.64505953     125.77265763     -20.24302814
H        4.26037600       0.32319900       0.61432500     -19.88909047     -13.43489426      70.84910800
H        5.79469200       2.14896000      -1.37161100       1.35337892      -3.44354912       1.21950798
H        5.59325000       0.25663700      -1.49780600      -1.76370831      -3.58593689      -2.89989277
H        6.91397500      -1.78538300      -0.84404000       1.40807341       2.67478390       1.01438422
H        9.41131400      -1.84002400       0.10755700      -2.78050591       3.86944874       0.59185607
H       10.34601500       2.18850800       0.69553900       1.27857024      -4.15829864      -0.36351157
H       10.65309600       0.32841200       0.88164500       3.54023053     -16.85631538      15.27611380
H       11.34501000       0.89778700      -0.65230000      -1.97382396       0.89373666       4.18457130
H        7.94423300       2.48089200      -0.33785000       0.34566075      -5.03603094      -0.87002546
B        8.26861400      -0.15262000       3.37726300       2.93285231       4.77206872      -2.78401712
F        7.89544500      -1.08804400       2.26804900       0.80816592       1.90445017       1.43603061
F        7.68135400       1.37981900       3.11145800       1.03731342      -4.81824531       0.76167158
F        9.83194500       0.41483000       3.04958700      -4.07222517      -2.00444746       0.70841892
F        8.20190000      -0.62861600       4.65594500      -0.36443059       0.27344208      -1.24692301
48
Properties=species:S:1:pos:R:3:forces:R:3 energy=-41193.3609038222 pbc="F F F"
C       -1.85592000       0.31632900       0.88493500      -8.97862354      -0.09325944      23.36217667
C       -1.05885900      -0.29221700       0.14320800      13.01406261       3.64307494     -16.70656529
N        0.59443500      -0.53692600      -0.11172000     -11.40635185      -8.96567973      -1.59078075
C        0.56712300      -2.06293900       0.25346400      16.52466495      14.68646878       5.83696986
C        2.22700500      -1.91767100       0.62392600     -16.38695674       6.79851185      -2.84414436
N        2.38099500      -0.55436200       0.98074800      13.35629155     -10.21615026       4.28678770
C        3.87911300      -0.26217700       1.29434100     -18.72370580      -1.75892371      18.98527551
C        1.47768600       0.12215700       0.52766700      -5.78068690      15.06802622      -2.19947196
H       -1.00839200       0.92591600       2.07451700      -2.76626472      -1.95226031      -3.91356723
H       -2.69227900       1.01523000       0.87435500       0.10649390       0.45045883      -1.37119458
H       -2.28564200      -0.78918800       1.64860400      -0.17448075       4.37305654      -1.66824909
H       -0.72360800       1.02928100      -0.14433400       0.04152719      -2.62273624      -1.80339638
H       -1.35250800      -0.52623800      -0.88459800      -0.58445288      -1.39718118      -0.21612093
H        0.17755700      -2.80909700      -0.09702800      -6.09362136     -10.09126707      -5.94706186
H        2.76273000      -2.61832400       0.83565900       8.53385746      -9.79440296       3.73989604
H        3.77147400       0.79961000       1.41392400      -2.35934588       0.16546420       3.39593917
H        4.41714400      -0.94058000       1.86440600      -1.31161622      -2.00716966       7.17742941
H        4.50971000       0.07669500       0.02517300     -67.75937803     -34.34346724     -89.46907924
H        1.28962300       1.28353000       0.36389500       1.31414800      -2.36654369       1.26917852
B        1.62933900      -1.10447500       4.01296900       1.53920253       8.15617352     -23.27071876
F        1.11371900      -2.07088000       3.12880000       0.53335197      -1.64224270      -5.66561570
F        0.86711300       0.03486900       3.99433600      -2.43815496       6.52655932      -3.55760533
F        2.82095200      -0.95832600       4.17921800      15.59868898       3.10691892      -2.83537373
F        1.25432400      -1.50860900       4.93070200     -14.91751595     -16.09517708      34.78951434
C        4.83722100       0.25190300       0.44961700      77.76873495      54.54916341      67.43685723
C        5.58122200       0.42793800      -0.97917600      14.96013969       9.18926203      10.96455604
N        7.54082900       0.03619600      -0.63261100     -18.61256881     -11.50752330      -4.65445646
C        7.61376800      -1.60884400      -0.62509200      15.74001577      12.60298816       2.73058273
C        9.07997700      -1.58884400      -0.06764200     -42.90049019      37.92571676       4.63273555
N        9.37081300       0.12943900      -0.13316600      18.93201975     -17.22239054       3.40541664
C       10.70545500       0.47209100       0.08768000       6.24739737       1.94133700       5.88874721
C        8.42122700       0.79633100      -0.11932100     -13.86533064      11.63886996      -1.17318211
H        5.54921600       1.11538700       1.40760000      -0.71818579      -3.02625944      -1.94465739
H        4.03182800       1.29735900      -0.04596300       1.81333543       1.18831203      -0.04230121
H        4.56850400      -0.69635300       0.73995100       4.34482810     -13.81677766      -2.04442943
H        6.01247300       1.19365800      -1.54490100       0.69385149       4.43239857      -0.26911522
H        5.35033200      -0.00905200      -1.70541200      -5.54997163     -11.31574509     -12.66500208
H        6.89440300      -2.22586300      -0.62020800      -7.27621290      -5.77985945      -0.14797867
H        9.59079300      -2.08609700      -0.15947700      36.29066057     -33.55754762      -5.79462619
H       10.74012200       1.59225100       0.64927200       0.21915173      -3.36021830      -2.32708405
H       11.38411800      -0.29913000       0.92077400      -2.93958982       2.59110334      -3.06270362
H       11.15434500       0.38888700      -0.90238300       1.31781225       0.63648734      -0.42651868
H        7.99157800       1.62813200      -0.68295900       1.85837302       3.28130316       1.06348006
B        8.21639100      -0.59937400       3.50951600       7.78742588      -3.65211993      -4.07394920
F        8.06741700      -1.63982900       2.04975900      -0.13461955       1.47758933       1.82904530
F        7.94088300       0.60514700       3.07983900      -2.64454475       2.42388819      -0.12820849
F        9.79770500      -0.63285300       3.27437000      -2.27293670      -0.09322703       0.50991586
F        8.09217800      -1.21625900       4.68823900      -1.93921734      -0.14352526       0.50912036
48
Properties=species:S:1:pos:R:3:forces:R:3 energy=-41228.5645205257 pbc="F F F"
C       -3.24879000       0.93482100       1.17803900     -11.31882832      -5.67371385      -1.40386204
C       -2.67890700       0.58796900       0.01061200      12.32626592      13.51607560      -1.23312408
N       -0.83348800       0.33222700       0.25425100     -27.65612131     -10.16829732      -7.52456561
C       -0.69769500      -0.91639900       0.28029100      10.30951744     -13.72261248       1.72761614
C        0.81742900      -1.14781000       0.70441800     -21.19329670      30.50284481     -11.13802374
N        1.09119400       0.24102700       0.99186500      -1.92244141      -8.51875982      -1.28792901
C        2.25003400       0.76551100       1.30892800      12.38227877      -3.76801785      -2.91510697
C        0.07617000       0.90685900       0.53471800      17.74147933      21.47115773       5.93703473
H       -2.53382500       1.31553800       1.74365200       3.31536540       3.47538792       4.72819270
H       -3.95797600       1.51902600       0.36095500      -0.46190599       0.25057236       4.40412959
H       -3.76902700      -0.13960800       1.46935500       0.89195368       3.70131017       0.82508398
H       -2.04659700       1.81160800      -0.53315400      -3.52823728      -4.31281752       1.18231350
H       -2.56147700      -0.01094900      -0.67366800      -0.70498523      -8.84046579      -8.99099980
H       -0.81667400      -2.00355500       0.40053500      -3.97442341       0.62410305      -0.86914838
H        1.19174200      -1.77853200       0.97981000      16.04608842     -26.23617187      11.37037132
H        2.13765200       1.80209200       1.45827900       0.90712127       2.00107079       1.84063783
H        2.92429800      -0.21323400       1.68949400      -1.92620884       4.12706338       1.47877140
H        3.04879800       0.58606800       0.20892300      -5.20262531       2.38092883       4.21595174
H        0.10176400       2.00272400       0.47391500       0.40018540       0.18779522       0.22292164
B        0.05117600      -0.36138800       4.07982600       1.91016702      -1.47472227       0.49985763
F       -0.04130000      -1.47300200       3.10968400      -0.10012873       2.55818842       0.45062292
F       -0.75621400       0.92422600       3.76052600       2.82725559      -4.10064667       0.87257019
F        1.89216700      -0.22771700       4.07996400      -4.78895821       0.39393794      -0.18993634
F       -0.18114600      -1.06373200       5.34477500       0.16380978       2.60803080      -2.15984924
C        4.60234600      -0.28476600      -0.16520600       8.53223839      -3.84468555       2.84283883
C        5.91235200      -0.65957800      -1.27790100     -47.12789159      16.76747840     -20.67738715
N        6.88082100      -0.86921900      -0.88523300      44.92261325      -9.74157504      15.30817459
C        7.43908400      -2.12954000      -0.81203600       2.75915686      -8.25336891       0.94634170
C        8.83956000      -2.18437900      -0.63530600       1.97992850      -4.29788329       0.28914582
N        9.36406000      -0.89302700      -0.67548600      -2.25808026       1.11987713       0.36201493
C       10.69706600      -0.41687900      -0.17858200      -4.67742247      69.33932548     -72.85413685
C        8.24485200      -0.16905000      -0.83234600      -5.31573634      12.29913218      -0.43499650
H        5.46921700      -0.01249200       0.63650600      -3.15848497       0.41374838      -1.14373693
H        3.94156600       0.62597100      -0.32348900       1.55056439      -1.50292913      -1.32752483
H        4.38812600      -1.36918600       0.28058600      -1.44908093       2.86906374      -1.36147069
H        5.79956500       0.56689600      -1.83664200       1.04911012      -3.82191866       1.69955762
H        5.31980400      -1.17832800      -2.17733900       2.10776190      -0.05233234       1.89376012
H        6.97769400      -3.19606200      -0.92744400      -0.22339838       2.72327400       0.15739017
H        9.68001200      -3.05053000      -0.62813500      -2.98683808       1.94337256       0.08483515
H       10.97431900       0.87083300       0.25067500      -2.34020223      -5.19501226      -1.25614013
H       10.72453400      -0.82265900       0.27230600       8.54720901     -64.17286192      70.86617937
H       11.18286200      -0.29879400      -1.25237600       0.69063245      -1.42347943       3.23766892
H        8.10035600       1.28647600      -0.80008700       0.89597960      -6.24180931      -0.06732922
B        8.55689200      -1.49079000       2.82943900      -4.30365900       0.82468459       0.33013465
F        7.94776000      -2.40468000       1.59330500       2.44999272       2.00018798       2.79435436
F        7.70512600      -0.11647300       2.44994300       2.87342820      -3.80079939       1.10195561
F        9.98128500      -1.20275900       2.98822100      -3.74758230      -1.13750685      -0.79984600
F        7.82376100      -2.15908700       4.08506100       2.78793944       2.19851019      -4.03453994
48
Properties=species:S:1:pos:R:3:forces:R:3 energy=-41201.2952474329 pbc="F F F"
C       -2.50224100      -0.64185800       0.62703700      -7.74198041      -4.13021006       3.88158951
C       -1.72368200      -1.08952900      -0.62523900      11.31581232      19.51260101      31.86875352
N       -0.38978600      -1.44890600      -0.22765300      -9.83649457      16.06162384      -2.69054146
C       -0.07898600      -2.58894600      -0.22473800       0.37160108     -17.15723438      -1.65225211
C        1.11411200      -2.54087200       0.24211900      14.63375421      -9.71119660       5.91453746
N        1.56366100      -1.33535500       0.58111500       2.14732920       8.17577879      -1.29687459
C        2.99006800      -0.58521700       0.51390900       1.47702765      -6.75501161       4.46640811
C        0.50225100      -0.49813700       0.03370700       5.45258370       6.05801649       3.31211592
H       -2.22645200      -0.28389600       1.72359200       1.51514657      -0.41176692      -2.70450743
H       -3.31390900       0.14495100       0.23249300       1.31396220      -2.03005508       0.99519127
H       -3.18312800      -1.88690400       1.16299600       1.93960844       4.71824868      -2.28759926
H       -1.46194600      -0.01569300      -0.86236800      -0.32578801      -0.18732469      -1.26432756
H       -1.95142200      -1.36466500      -1.30739800     -11.82177304     -14.50298990     -31.07648903
H       -0.60669100      -3.51375900      -0.35779000      -1.30125496      -0.80827302      -0.61727833
H        2.17304200      -3.28856400       0.36191600      -3.94063892       1.20342693      -0.62542382
H        3.27313000       0.23383000       1.23228000      -2.91825713      -0.05030523      -0.77387473
H        4.02243800      -1.47112800       1.39398200      -3.76554435       1.79366376      -2.62400569
H        3.59478100      -0.76249800      -0.42410500      -0.27364752       0.57538677      -0.77644655
H        0.80737900       0.86049100       0.26260700      -2.26678919      -4.61700777      -1.00277849
B        0.86674400      -1.96527600       3.84877500       1.56958451       6.12755352      -9.19915368
F        0.51505300      -3.05362500       2.41480800       0.97072132       1.58107424       2.00281187
F        0.03935300      -0.68519100       3.32797400       2.02643460      -3.52649461       1.31672672
F        2.27785100      -1.56488100       3.78791200      -2.54937260      -1.41581773       0.13309481
F        0.39205100      -2.43789200       4.91216600      -1.90371232      -2.78301762       4.61078625
C        4.91520700       0.60520700       0.76036200       8.39312715      18.40693240      -8.85714245
C        6.21008000       0.72622800       0.03679800     -25.03558178       5.57510213      -7.71743031
N        7.30949600       0.52992800       0.09620500      12.91930207     -13.61341893       2.55328446
C        7.95840200      -1.10358200       0.11050000       3.91516174       9.32765171       1.83327484
C        9.26886300      -0.59072800       0.22746200     -10.56942702     -23.08490938      -7.50309156
N        9.83565500       0.29419700       0.67300600       0.18577957      14.84507209       5.13702539
C       11.06270000       0.63919400       0.91944600      -1.85646691      26.64977071     -20.43636570
C        8.43717700       1.00747900       0.20051200      14.49175463       5.89328374       0.18625377
H        5.50250300       1.27630700       1.83287900      -1.06349588      -1.06364963      -1.86062532
H        4.23754000       1.47281600       0.81696500      -0.71466606       1.20510668      -1.39397107
H        4.68040200       0.13591500       1.40430000      -5.35272030     -14.97523076      16.31912470
H        6.04638300       1.92254400      -0.89441300      -0.10995649      -0.98297129       1.22619676
H        5.80962800       0.02758200      -0.94842900       0.10283398      -0.29800878      -0.57062432
H        7.43887600      -1.88126300      -0.16559800      -4.32757455      -6.62619588      -2.45572165
H        9.70479300      -1.46238800       0.68655400       1.35146250      -2.96110318      -1.16407036
H       10.42076900       1.65773100       1.10251000       4.05352405      -0.40641936       1.74644154
H       11.24716000       0.10769300       1.48770600       9.91988566     -17.53056390      20.74275070
H       11.78347500       1.11549300      -0.06892300      -1.84920118      -2.51463882       2.75776035
H        8.46089900       2.07836600       0.13860500      -0.01157397       4.40895888      -0.01298157
B        8.32349500      -0.44166900       3.95078800       2.32669528       6.61962064     -24.09186857
F        8.04496300      -1.29356400       2.83907000       1.35739476       1.43785698       4.41346491
F        7.83121400       0.80367100       3.67870200       1.74714623      -0.65074995      -0.76769841
F        9.97930400      -0.11287500       3.75941800      -5.82320366      -0.03292143      -1.77510978
F        8.35731100      -0.66656400       5.04130800      -0.13830865      -7.33758593      21.78886135
48
Properties=species:S:1:pos:R:3:forces:R:3 energy=-41203.4114477437 pbc="F F F"
C       -3.62258900       1.05545800       0.48567400       8.84417340     -16.89643432       3.84632381
C       -2.72332600       0.73742800      -1.06454900      -4.47996988      -5.91083350       3.95493623
N       -1.51607800       0.18122900      -0.48725100     -11.11405689      38.36340331      -3.98234683
C       -1.03206900      -0.75164700      -0.36301700      16.96315952     -43.37928662       5.46601378
C        0.52000800      -0.81610500      -0.00345100      -9.20919022     -13.77926238      -0.69432123
N        0.72403200       0.37454200      -0.01384800      11.61513534       8.32566041       1.81859352
C        1.97711500       1.10061600       0.49518700      -2.91715168    -100.17042397     -42.74472572
C       -0.29465800       1.13528900       0.01045000     -12.19769169      12.75464457      -0.21227212
H       -2.87677900       1.44214100       1.33715100      -0.85787014      -1.54392590      -1.84509147
H       -3.97980700       1.82927900       0.22410100      -8.71726157      12.48364223      -4.08253284
H       -4.08555100      -0.15073400       0.81995200       0.85567215       5.47306056      -1.17092256
H       -2.68972300       1.73638800      -1.45165300       0.79335969       1.23579714      -1.70542302
H       -3.08701500      -0.38954500      -1.66015400       0.26418829       4.95091471       1.41782388
H       -1.78726400      -1.72420600      -0.45339200       3.16545700       2.18307585      -0.07537087
H        0.97895400      -1.75464000       0.20486600       1.19684484       0.29686191      -0.20783643
H        2.04350300       1.64762400       0.72799800       9.42310903      91.98023463      38.97500056
H        2.70557600       0.03060700       1.18518600      -3.11937349       4.92403196      -2.03176281
H        2.73826800       0.87021900      -0.70430900      -2.59967980       1.90302736       4.76215429
H       -0.57072100       2.46448600      -0.22536900       1.62100442      -3.85067133       0.00711660
B       -0.01859700      -0.16569300       3.03422700      -3.33162967      -9.65295035       3.41351377
F       -0.53023500      -1.42425500       1.90791600       2.36948678       5.31812166       1.45466356
F       -0.87274700       0.73596700       3.43768500      -2.23322911       4.98705274      -2.25218942
F        1.17776500      -0.22450700       3.65480500       4.37114758       1.58175524      -2.53680603
F       -0.53139900      -1.10092000       4.34747900      -0.94943365      -1.56824389      -1.54069047
C        5.32288900       0.30047300      -0.13214600      16.92880106      -6.93821712       1.68394016
C        6.41716700       0.21215700      -1.38268300       2.41594467       3.34001567      -3.17399543
N        8.06499900      -0.13981600      -1.21696800     -10.01793721       5.40993580      -0.21192334
C        8.16421800      -1.45352300      -0.89127700       6.20316078      -4.06110290      -0.69423845
C        9.68887400      -1.49560600      -0.64026700      -8.85793482       4.78885995       1.04202575
N        9.92437200       0.04732900      -0.72459600      18.25227342     -24.20299874       1.72163320
C       11.23925000       0.25248700      -0.56065900      13.66609864       0.34912713       6.78222485
C        9.24480300       0.94019100      -0.77675100      54.31618143    -115.10052917      32.57941488
H        6.26754300       0.82927600       0.47097200      -3.41185450      -1.20467523      -0.57978929
H        4.83640700       1.02383900      -0.36191000      -9.08160376      10.09884451      -2.96102218
H        5.18363600      -0.54912700       0.46172400      -1.68543024      -1.91294052       0.51807608
H        6.31749000       1.17816400      -2.06585900       0.36223686       1.00807389       3.97618502
H        6.64935600      -0.05927000      -2.40953200      -2.60232429      -5.08666608      -0.87426811
H        7.51499500      -2.41420400      -1.34584200       1.77156916       3.75612992       1.82927775
H       10.33750600      -2.31878700      -0.63999300       2.14597116      -0.69762251      -0.13942177
H       11.41111100       1.16810200       0.06816500      -0.81364913      -0.48991570       0.09642836
H       11.50788700      -0.73697900       0.47612900       0.06039678       4.24448190      -4.39862809
H       12.10528600       0.60178600      -1.35434800      -2.96902087      -2.61594457       0.81187276
H        8.97224700       1.36748500      -0.90427300     -77.04189209     129.19099304     -35.99569491
B        9.17161300      -0.61356700       2.64387900       2.04666251      -5.19660616       2.70909385
F        8.83396900      -1.88491600       1.36198500       1.06365728       2.92768165       1.34144372
F        8.49376300       0.45090500       2.42469800      -2.79574960       3.43820148      -2.02432822
F       10.57991500      -0.35638700       2.48947200      -1.86895846      -1.50981312       0.03121301
F        8.64139400      -1.14668600       4.00076400       2.16612386       0.44708530      -4.12003521
48
Properties=species:S:1:pos:R:3:forces:R:3 energy=-41236.3128014403 pbc="F F F"
C       -2.87617600      -0.44424100       0.15224700      59.83651904      62.85278002      17.17966361
C       -1.97657200      -0.45683700      -1.18289900       2.87873158      11.97080828       9.97166583
N       -0.57601400      -1.10935700      -1.18468300       0.77467515       8.85856799       4.11436763
C       -0.05435300      -2.27409100      -0.62356400      -4.67251432      -2.63599655      -1.30523033
C        1.21539800      -1.84342200      -0.44580200      -4.04028237     -39.00499664       2.83057568
N        1.62095600      -0.82312400      -0.50601700       1.51059512      31.39947236      -0.29508410
C        2.79673700      -0.20507100      -0.07870100       5.41830607      -6.28298745      -5.94091069
C        0.34746900      -0.01292700      -0.49121500      -0.23120004      -5.79222839      -2.24736897
H       -2.07662800       0.30156000       0.59464000      -2.03316201      -3.80245056       2.48195562
H       -3.67325800       0.59956900      -0.05176100       2.60969218      -3.32958747       0.06877455
H       -3.32602500      -0.84237200      -0.02671400     -59.69431260     -56.67867470     -18.85190220
H       -1.97380300       0.75453300      -1.44876700       0.99284788      -4.21186741      -0.21839509
H       -2.14382900      -1.02793500      -1.83582900      -6.83937816      -9.27593724     -12.67832577
H       -0.60671300      -3.30544400      -0.78512500       1.90205868       2.31974389       0.45749270
H        1.79935500      -2.89282300      -0.28405900       0.06533233       3.38869168      -0.05406228
H        2.71664700       0.85220500       0.19172600      -0.02315200      -0.00741783       1.01670358
H        3.27001400      -1.31587500       0.33394700      -1.06056407       4.77889332       0.78047076
H        3.45378500      -0.35141600      -1.27852600      -2.87666906       1.44606821       4.06946381
H        0.39035500       1.01438800      -0.55951600      -0.10780535       3.38218455      -1.26082508
B        0.40728800      -1.37440100       3.07663800       5.74674873       8.08281316     -18.26678789
F        0.26476100      -2.07907200       1.72291600      -0.67763899      -0.92647543       0.93177286
F       -0.12345100      -0.07365300       2.70768700      -0.52095772      -0.40335988       0.13684329
F        1.90383500      -1.16321100       2.74173600      -0.95776236      -0.68769965       1.04632624
F        0.19613600      -1.65043900       4.17655200      -3.49833781      -5.85724338      15.22836411
C        5.40152900      -0.33087400      -0.08658000      -7.29944712       2.04675404      -0.48041912
C        6.25752400      -0.50491100      -1.42362900       6.39836345      12.13560165       6.44933922
N        7.48670100      -1.05506500      -0.88571300       6.03884745       9.76403182       0.81083617
C        8.23559100      -2.16562500      -0.76942100      -8.34739449      -0.28564124      -1.74132289
C        9.45317400      -1.84294800      -0.61133700       4.52409868     -26.99149979       2.27945100
N        9.86211400      -0.77329800      -0.55651100      -3.66582753      24.54089539       0.93579314
C       11.02391900      -0.17431300      -0.17193200       5.20056997      -5.80212627     -12.16191924
C        8.65077300       0.15122600      -0.50889600      -2.01526962     -15.72588187       2.72171148
H        5.75877800       0.22092700       0.70203500       2.81678335       0.94279846       2.99864428
H        4.45207200       0.42150900      -0.30610600       4.73097931      -1.64994069      -0.06538466
H        4.60730800      -1.16206100       0.31506400       4.84185575       1.08209999      -1.24499479
H        6.53423700       0.75867200      -1.78594300      -1.72554768      -5.39618605       0.09857703
H        5.64520900      -1.17122700      -1.59635800      -7.18783144      -8.71446903      -6.41586246
H        7.53262100      -2.89811000      -0.86876900      -0.70876758      -4.76643583      -0.12743282
H       10.08676500      -2.81396200      -0.24655700      -0.88665176       2.92649417      -1.31277100
H       11.07060700       0.65039700       0.28802200      -0.45301763       9.03364897       3.92549299
H       11.41150000      -0.88392500       0.39967200       3.87286459      -4.05731205       3.60305754
H       11.54069000      -0.28512600      -1.43685800      -0.19101775       1.51613832       5.28788572
H        8.56819600       1.03314200      -0.81416400      -0.52750776       9.78859307      -3.93007375
B        8.76634000      -1.55050700       2.98336500       4.68242669       9.20167961     -15.05219989
F        8.53563300      -2.42356800       1.64600800       0.50787986       1.96961737       3.03455530
F        7.98610300      -0.02739000       2.62738000       0.78373894      -3.40488243       0.15962661
F       10.06596100      -0.93598800       3.00995000      -0.82608191      -1.52292956      -0.53770705
F        8.39946500      -2.03370100       3.98423900      -5.07192575      -6.18621466      11.55840337
48
Properties=species:S:1:pos:R:3:forces:R:3 energy=-41240.5430319324 pbc="F F F"
C       -2.88930700       0.95719200       0.21253600      -5.18717147      -9.22072142     -14.45585266
C       -2.08352000       0.29944700      -1.21652700       6.03765530      18.38459126      11.15506584
N       -0.66752900       0.21461500      -0.71949200      -7.70819851      -6.80620705      -3.03092752
C       -0.36081800      -1.16835900      -0.81934700       7.87921087      -0.44761590       1.30758256
C        1.22804700      -0.94674000      -0.78422200      -5.13090203     -40.74920539      -0.23376775
N        1.34128900       0.14264800      -0.62632200      27.93785059      12.72441766      10.99261217
C        2.60222700       0.64958300      -0.01629600       9.26396086       3.47499218      -2.77120060
C        0.49313700       0.80359900      -0.92530100     -18.40007570      31.70116937      -4.85825360
H       -2.44443700       1.21489000       0.95593600       7.36443219       4.76694202      10.42723480
H       -3.54712500       1.41203500      -0.42292300      -2.90270962       3.28113324      -0.07893451
H       -3.27127300      -0.00781600       0.26806600      -2.29514752      -2.12205528       2.61269233
H       -1.99999100       1.72106000      -1.59035300      -0.08846824      -5.47524039       0.01858623
H       -2.40604800      -0.07791900      -2.00636900      -3.96959234      -5.73367930      -8.65129090
H       -0.83266000      -2.09755200      -1.15604300      -0.92493853       0.44308338       0.22611649
H        1.95377500      -1.99469200      -0.17641200      -2.66077837       4.67721936      -2.78344437
H        2.79465100       1.78275700       0.51170800      -2.07935711      -3.83971483      -1.58433241
H        3.20465300      -0.14294400       0.53981500      -1.94186743       0.65590508       0.16266899
H        3.54214300       0.73255900      -1.06923000      -4.11967225      -0.07882130       3.59305454
H        0.68556900       2.20012000      -0.60064500      -1.40548240      -5.68757832      -1.52517846
B        0.50158800      -0.25131500       2.74526100       7.07530924     -11.20894351       3.85021595
F        0.23396500      -1.41803000       1.79711300      -0.07434266       2.94465142       1.24858135
F        0.00883200       0.85171300       2.83647800      -6.40275331       9.46374229      -1.36587257
F        1.95987500       0.01185100       2.88170700      -1.32071052      -1.54883471      -1.18751723
F        0.13617900      -0.88542700       4.24637300       0.52965200       0.32195955      -3.20072573
C        5.63287500       0.67633000       0.39575300       8.57712590      15.35027175       4.18791325
C        6.72536200       0.72316400      -0.62051300      -1.91127849      -0.62509834      -9.44391254
N        8.16669700       0.17290600      -0.40039300     -10.21131247      14.73348872       1.71980544
C        8.49117500      -0.94039200      -0.71110200       7.47391992     -22.61336817       2.35953689
C        9.84774700      -0.90572000       0.11040700      -0.08802837     -10.61197117      -1.55312938
N       10.34460900       0.35670400       0.24531600      -4.31703700      -5.67136062      -0.05207861
C       11.66715800       0.49205400       0.49760600       0.54840642      16.48821240     -13.65683414
C        9.21440800       0.91735000      -0.15293300       0.32203352      16.93894218       1.89616766
H        6.53672700       1.08310600       1.54424100      -3.70020039      -1.78135642      -3.64801600
H        5.11145100       1.71116000       0.35872900      -0.45119537      -3.00648406       0.07446124
H        5.46904100      -0.21663800       0.57916000      -4.06954724     -10.44293937       2.75293650
H        6.73787200       1.77488700      -1.25659300       0.58404554      -2.86991440       2.14495062
H        6.14837900      -0.24126000      -1.69948700       2.73028276       3.55531156       3.74513090
H        8.00512300      -2.18515300      -0.22744300       0.85619924       5.12240274      -2.29793806
H       10.53523100      -1.86099400       0.03228800      -1.07363682       2.32672646       0.53219768
H       11.89555900       1.58283800       0.69166500      -1.02022974      -0.54180226       2.36586843
H       12.03697800       0.02497600       1.18209100       6.13452637      -8.36475596       9.25416426
H       12.04805600       1.14772000      -0.72118200       0.49317219      -4.41492557       2.53229895
H        9.25546200       2.14412800      -0.01578700      -1.11398296      -3.81715148      -0.82146705
B        9.24917100      -0.35130700       3.36416700      12.76541389     -20.05538311       7.10647465
F        8.95006300      -1.34516300       2.15638200       1.41861185       1.48693707       0.70292327
F        8.78798100       0.65555400       3.20466200      -9.64398156      19.59037348      -4.04400203
F       10.91927400      -0.09795700       3.61369400      -4.00488932      -1.19115093      -1.73264128
F        8.95204000      -0.93477400       4.77213300       0.23890156       0.46397885      -3.97834609
48
Properties=species:S:1:pos:R:3:forces:R:3 energy=-41195.746498329 pbc="F F F"
C       -2.10107900      -0.24481700      -0.10760300      -3.85010499       8.18439622      13.11463402
C       -0.99323800      -0.29089800      -0.87065600       2.37838586       6.65540558     -14.17667459
N        0.57610200      -0.59968800      -0.86691000     -22.74628273      17.34517698      -7.06450602
C        0.71865600      -1.73673600      -0.89692900       1.71613398     -31.99121113       2.50172936
C        1.84251400      -1.82610900      -0.08414500       7.77658360     -14.26335622       1.45138581
N        2.29592700      -0.55417400      -0.00747800      41.08216646     -33.03500814      26.01541600
C        3.79559300      -0.32975700       0.38611200     -18.11001911       7.61882417     -16.00244104
C        1.58378100      -0.05618200      -0.48115700     -36.82307287      51.92526018     -21.72760681
H       -1.05019400       0.35088100       0.86788600      -4.19377310      -1.38697406      -1.12636296
H       -2.92714500       0.77007200      -0.19242800       3.22431053      -3.86052837      -0.05960760
H       -2.59380200      -0.91241900       0.58978900       0.09777280      -1.77882326      -0.34429625
H       -1.12749900       1.21956700      -1.35266500       1.57957674      -5.42757682       1.25570174
H       -1.46671800      -0.74096500      -1.81845100       2.94616571      -0.39213678      -0.30953547
H       -0.00995200      -2.81284400      -0.88129100       2.24152604       4.79967721      -0.88039150
H        2.86755200      -2.89003400      -0.01706900      -4.49069502       4.41389335      -0.03958248
H        3.44869900       0.68126400       0.71749800      -8.36832823       4.27628927       3.67836549
H        4.32798800      -0.92058000       0.77976500     -21.40339244     -13.07963310      12.02377539
H        4.37775100       0.06082600      -0.87564900      -4.44872294      -2.11574457       1.74089751
H        1.27882900       1.19385200      -0.24341400       1.81735693      -3.38480386      -1.22696158
B        1.58982900      -1.17708200       3.00155400      -1.61343351      -0.01508055       2.79455385
F        0.96124800      -2.22986400       2.15209700       2.73426255       1.34827191      -0.30210933
F        0.71735500      -0.05345900       2.80886100       1.98848470      -0.63377648      -0.09253563
F        3.27260400      -0.57116400       3.03027400      -5.03648693      -2.23767739      -0.68969681
F        1.15611200      -1.81546600       4.35818300       2.22647657       1.79163798      -2.62247327
C        5.21149000      -0.30829400       0.85685500      22.07244660      16.86194731      -0.26352998
C        6.24417700      -0.34812300      -0.69565300     -16.03453594       2.69901311      -7.37153523
N        7.21577900      -0.67690700      -0.05155400      20.94175376      -4.63685062       6.51234357
C        8.31283200      -2.14382700      -0.36320300    -106.93150868      -4.63831322     -32.11334912
C        9.15673900      -2.14412500      -0.07128900     107.23152548      -0.73962828      31.72630454
N        9.68295900      -0.67316300       0.01990600      -3.69186626      -3.31743141       1.20229763
C       10.93968800      -0.35050500       0.51358600       5.71884907       2.56855092       0.98235516
C        8.47171100      -0.05068100       0.11794600      -2.00845516       5.06866906      -0.92934222
H        5.71343500       0.26853800       1.48143500       3.15636658       1.93790759       4.71986654
H        4.21087600       0.51719100       0.54166600      10.52498260       9.48561010       0.88614923
H        4.90223700      -1.08734800       0.61757500      21.08029172     -23.15647921      -5.45817724
H        5.93729000       0.66475000      -1.21701800       1.23018166      -1.26814521       0.49857222
H        5.85345300      -1.29947300      -1.44773200       0.76880748       2.95845045       2.43585746
H        7.54902100      -2.83352600      -0.20348100      -2.19319693      -1.58894759      -1.62730729
H       10.01390000      -2.97630200      -0.03558100      -1.50180036       2.36375106       0.80491878
H       10.83628100       0.65308000       1.11086600       0.72175848      -1.64516032      -1.30050206
H       11.53551400      -1.12911100       1.25467200      -2.01335772       1.75122725      -2.33921849
H       11.44169900      -0.20853600      -0.56634000       0.74827433       0.03465855       3.16427938
H        8.58626700       0.98131500      -0.28871900      -0.65153687       0.36668739       0.90839427
B        8.77515000      -1.41440100       3.42125700     -16.60429056      -6.08633023      -0.49235049
F        7.98380000      -2.43617300       2.41433700       2.91513304       1.59911054       1.42481614
F        8.00388900      -0.33215100       3.34447400      -3.05971091       3.80022327      -2.02054661
F        9.86773500      -1.09746300       3.67551000      16.88115125       2.21384558       1.11527076
F        8.20205200      -2.00062700       4.68729600      -0.02596399      -1.39309006      -0.35916045
48
Properties=species:S:1:pos:R:3:forces:R:3 energy=-41213.788889668 pbc="F F F"
C       -2.30396500      -0.04194300       0.03299500      29.51338172     -20.67956946      17.43826083
C       -1.38749200      -0.78717100      -0.98263600       8.10342452      14.09689242      26.98303541
N       -0.17559100      -0.97223000      -0.73903600      16.02731249      -1.22047855       4.20371119
C        0.41568100      -2.15517000      -0.44325300     -10.86229394      -7.57493848      -1.73183077
C        1.65727500      -2.12238900      -0.36377200      10.35979073      -6.59213265       4.04535554
N        2.21497600      -0.56722900       0.20366300     -24.80148676      -8.42906766      -4.33781051
C        3.34813500      -0.32727000       0.12180700      13.13068140      -1.99216612       2.83520781
C        1.10530100      -0.09114900      -0.54932600      -3.52231657       6.29889399      -0.08660799
H       -1.86375000      -0.10747100       1.20319800      -1.02304310       2.04360511      -4.34525905
H       -3.01832200       0.22798200      -0.11798700     -30.56784238      12.44688212      -7.17629626
H       -2.84038400      -1.42075500       0.88919600       0.57467540       3.62517989      -2.64746841
H       -1.17601800       0.31440200      -1.15813600      -0.16630354       0.95492998      -1.71031718
H       -1.81226300      -0.81797100      -1.61546700     -20.08291128      -5.38331650     -31.60149379
H       -0.38600500      -3.14973800      -0.54548500       3.25061607       3.46584911       0.50058838
H        2.06457900      -3.30674200      -0.01717500      -0.14919837       4.91643402      -0.95300139
H        3.10607200       1.08636300       0.91828100      -0.20885456       0.85407987      -1.48405156
H        3.78071000      -1.19823400       0.75853700      -0.34918481      -0.84191055      -1.14217419
H        4.05741300      -0.34139400      -0.57942900       1.02160482       1.45208637      -4.31685755
H        0.92190300       1.11492700      -0.42729400       0.16443327      -3.21474809      -0.71555182
B        0.96365700      -1.62530600       3.18678700       3.60736235       7.58106666      -2.85297328
F        0.52899200      -2.28948400       2.13231200       0.19777969      -1.51638173      -0.36441233
F        0.59693900      -0.14032300       3.02263700       1.17505873      -1.66125056      -1.04809832
F        2.62122300      -1.20736200       3.45632400      -2.61549448      -0.74064095      -2.25976264
F        0.75618100      -1.75670300       4.41249300      -2.43389174      -3.62442057       6.67944610
C        4.95584500       0.68991700       1.27207900     -16.31197480     -16.21260807     -27.89104343
C        5.78200600       0.57699200      -0.09387800      -3.12206182      16.17800158       6.93457052
N        6.96722000       0.19038500       0.16105400      17.62736321      -2.98556988       6.41449351
C        7.87516400      -1.29399300       0.54919700     -69.11544476     -16.75858225      12.48501477
C        8.78205600      -1.04591200       0.26027600      71.26107652      10.68538870     -12.41296354
N        9.62761900       0.24952100       0.82315000     -30.90799263      -5.60450160      -3.98425292
C       10.77703400       0.69390300       0.97059700       6.64095532      -0.88064457      18.24583350
C        8.04674300       0.88752100       0.89995500       0.28758408       4.87532469      -3.46049147
H        5.29354700       1.05715600       1.85192300      16.91540944      16.94002767      28.18164889
H        3.86226800       1.54263100       0.80658100       0.92656623      -0.09986020       1.91972266
H        4.13518400      -0.21448300       1.25526800       4.88525366       4.03836764       3.18578204
H        5.65369900       1.78514800      -0.56793100       0.96696443      -4.13009539       0.85473482
H        5.31529900      -0.01571800      -0.58628400      -6.04759576      -8.49664260      -8.39569999
H        6.96361200      -2.02803200       0.30729600       3.17624949       1.03193989       1.74130082
H        9.56887100      -2.20061900       0.63929700      -1.84116074       3.77262955      -2.05419298
H       10.79287100       1.57939100       1.48723500       0.30485321       3.77945286       1.19402614
H       11.08126300      -0.09754100       1.80536900       2.67065408       1.81726030      -1.68682455
H       11.06923500       0.62760500       0.15298800       9.77547876      -0.28211200     -16.25470167
H        7.85677800       2.02004800       0.52612700       1.57016878      -2.02359722       1.85798975
B        8.54315200      -0.53060400       3.85542900      -8.09430388      -1.61734252       3.75988787
F        7.98905900      -1.50010400       2.96388500       2.34123030       0.90198662      -0.74871481
F        7.10347400       0.43682700       3.84428900       2.96927868      -0.38167020      -0.82674786
F        9.63108200       0.07297400       4.29856600       2.31211037       1.12686175      -1.82723093
F        8.01665200      -1.11796000       5.21086200       0.50214321       0.07703361      -1.16005760
48
Properties=species:S:1:pos:R:3:forces:R:3 energy=-41225.1898534043 pbc="F F F"
C       -2.37013200      -0.15257300      -0.75110800      14.38928502      24.44801396      -7.62082205
C       -1.30314200       0.01130600      -2.10027700      -3.09495538     -18.00517081      13.66712180
N        0.19382400      -0.31334500      -1.30888900     -49.03632383     -23.49748502     -10.06048226
C        0.20293700      -1.88034000      -1.48149500      11.46821315      12.37573458       4.87258990
C        1.57342200      -1.78520400      -1.15195200       6.72855216      -5.08024490      -0.37699407
N        2.13132900      -0.33181100      -1.15427300      19.34951920     -14.33830365       1.69423318
C        3.85039000       0.18520300      -0.95783300      -8.79352976     -23.65304999      -8.13181556
C        1.10637500       0.18609900      -1.17833500      19.67893105      38.20867832       3.28593473
H       -1.45624600       0.45103800       0.10681800      -3.97882258      -2.92691749      -2.42547862
H       -3.06036600       0.97575000      -0.84948900       2.08294998      -4.50810345       0.10710746
H       -2.87167800      -0.65821300      -0.26293700     -10.40506713     -13.30001163       9.10810128
H       -1.15093300       0.81103000      -2.39599800       2.07905011      17.40157787      -6.90775027
H       -1.82022100      -0.82749900      -2.50265200       1.27817761      -1.33298302      -2.92935802
H       -0.06809200      -2.74919700      -1.72018900      -5.41756759      -8.31648713      -2.62553276
H        2.59030800      -2.66061000      -1.15368700      -4.43540876       3.10364458       0.06960016
H        3.67332800       0.80233500      -0.44867900     -10.41526767      16.41612878      11.33508995
H        3.88963900      -0.91699500       0.06500800      -3.34751944       1.55957171      -4.98916034
H        3.85478600      -0.08004700      -1.84998200       2.08011767      -0.77981195      -9.92535266
H        1.18332200       1.49261800      -1.25561900      -0.83301585      -4.25985012       0.46735389
B        1.13325200      -1.05372100       2.22255500       0.11344601       4.12597189      -0.23958362
F        0.97989500      -1.92987100       1.23923700      -4.10650480      -4.29659358      -5.65397358
F        0.41622700       0.22552400       2.05065400       1.26768405      -1.36310857      -0.29239060
F        2.55837500      -1.05689900       1.93130700       4.04739541       2.69293873       1.09049916
F        0.82480400      -1.59796900       3.38355100      -0.62213468      -1.02883969       3.73399667
C        5.39504700       0.48375900       0.45088800     -15.51629005     -12.08049082     -12.79855138
C        6.11175900       0.30158800      -0.68801500     -27.53735234      15.07342914     -13.99164151
N        7.17668800      -0.03313700      -0.55634800      33.30985030      -0.62606051       2.72067046
C        7.65194900      -1.15375700      -0.30729700      11.16990490     -14.91526249       2.21434289
C        9.17640200      -1.39357500      -0.14136400      -7.30930296      11.00069305      -1.47613088
N        9.30127800       0.23202000      -0.23912400      12.04264455      -6.91728233       4.85788145
C       10.95777500       0.57418800       0.40746900       0.62668921      -1.74156185      -8.19875663
C        8.25944700       0.95081400      -0.41472100       0.23294451       1.22553303       0.87194547
H        5.64397200       1.05614900       0.97719800       9.19647417      16.71691368      18.44923209
H        4.45545500       1.29801500      -0.18186100       9.29428573      -0.00335458       6.76351173
H        4.48733800      -0.51548900       0.46337400       7.34561875       4.35086016       5.48597017
H        6.37072500       1.50814400      -1.52698900      -2.33499451      -3.99445830       3.55711019
H        5.56189400      -0.09324400      -1.54516500       0.65208523      -1.24097027       0.80019453
H        7.45503100      -2.18819400      -0.42641400      -3.71871708      -0.94818408      -0.36595971
H       10.03212100      -2.05985300      -0.00840100      -0.39388005      -0.15200477       0.12092432
H       10.89392500       1.52789600       0.91117800       0.05392595       0.71632661       0.31251572
H       11.70727400      -0.22052400       0.92458800      -3.62337396       1.49951975      -0.79540988
H       11.47101300       0.61390900      -0.83575600      -1.75536180       0.68054505       5.53778193
H        8.40110400       2.08224000      -0.28461500      -1.96300453      -2.42080562      -0.65139377
B        8.64889700      -0.84458800       3.27873500      -6.31416422       1.35195174      -2.07117028
F        8.05726700      -1.71961500       2.34320800       0.72448064      -0.17713449      -1.86713756
F        7.72662600       0.62399300       3.13608300       0.88847094      -0.81318776      -0.80447861
F        9.85966000      -0.42322900       3.14969200       5.28640362       1.13340552      -0.83883009
F        8.15026700      -1.25071000       4.42763400      -0.41041327      -1.38409800       4.92887230
48
Properties=species:S:1:pos:R:3:forces:R:3 energy=-41255.0336501468 pbc="F F F"
C       -2.93193300       0.09939400       0.67657100     -10.26002591       0.41998958      17.80319394
C       -2.00195700      -0.00362700      -0.36928100      -4.49050383     -13.37796756      -4.17394266
N       -0.86484900      -0.35617600       0.21989300      13.96530905      -5.03484592       0.73628776
C       -0.24168700      -1.66026100      -0.23424400       2.90673052       2.06690817       2.34856528
C        1.09329700      -1.79091900       0.21010900      -6.21658728       8.32409857      -2.46214972
N        1.40187300      -0.35616900       0.40546500       9.29004264      -7.14739813       2.77994714
C        2.71499700       0.10140200       0.97894300      -4.21151412       3.63352353     -13.77057693
C        0.44735800       0.40169300       0.36526600     -13.77560319      11.79684950      -1.14498260
H       -2.54011300       0.58963300       1.71842300       1.43772822      -1.37798775      -2.82095019
H       -3.79501200       0.92077400       0.92622900       1.28233522      -2.10381472      -3.66116826
H       -3.37481400      -0.81785000       1.32449700       1.09850017       1.41928599      -3.04171335
H       -2.12859700       0.85979900      -0.33510500      -0.10408145      18.26367444      -4.75064580
H       -2.56471200      -0.75631200      -0.96978600       1.68299507       1.04677154      -1.70022155
H       -0.73512700      -2.51496000      -0.08422000      -3.89231173      -4.43999662      -0.20295166
H        1.82314100      -2.36392700       0.52709200       4.42575936      -4.79787458       1.56328519
H        2.72431200       1.11310900       1.09993800      -1.09689592       3.81567855       2.00958203
H        3.06736500      -0.41071600       1.66425500       3.98226021      -6.66276137       8.77390289
H        3.37417600       0.16764000       0.00803900      -3.54310593      -2.20375396       2.70301322
H        0.33652200       1.71474300       0.35253100       0.94325837      -5.20264405       0.39672889
B        0.40818500      -1.10583900       3.71832100       2.02335000       4.22901127       3.82262329
F        0.01878200      -2.00820500       2.86249100      -1.59159650      -2.08918647      -5.98469723
F       -0.07215600       0.33787900       3.75172300      -0.21790401      -2.30582876      -0.89059366
F        1.80467900      -0.89955800       3.74352400       0.91020656       0.10561083      -0.86065917
F        0.05989500      -1.77577000       4.87076600      -0.87968881       0.13391203       3.32181613
C        5.00594500       0.55286300       0.20856400       0.20319150       1.06222309      12.28498989
C        5.92980100       0.62318200      -0.77115500       0.46234445      -6.78520940     -11.17546322
N        7.18983200      -0.14393600      -0.46360200       1.00503731      15.83319775      -1.10837702
C        7.76881100      -1.25026900      -0.50236700      -7.05660085     -11.20527077      -1.06566533
C        9.08999200      -1.33737100      -0.21325800       7.71126282       2.21690344       3.35889054
N        9.68741100      -0.03677900       0.04757000     -17.11825943      -0.72274296      -6.38446004
C       10.79956700       0.69226800       0.28499800       3.24014309       1.33139483       0.19351463
C        8.20164800       0.96551100      -0.84298200       4.58974519      -5.48205406       1.49397855
H        5.74366400       0.95363100       1.17408800      -3.32243503      -1.24520491      -1.99882333
H        4.21441800       1.33762400       0.07326000       1.57700444      -0.49897118       0.13233917
H        4.68989400      -0.57985500       0.48568700       1.72631869       3.50606903      -0.80294225
H        5.99224200       1.53752200      -1.36062500       1.29057784       0.83987743       0.38722823
H        5.31950100      -0.09546100      -1.57316200       2.36674596       1.79419444       0.64933065
H        6.69272600      -1.90990900      -0.75236400       4.92709613      -0.41375928       0.90047505
H        9.92242700      -2.07920900      -0.08495300      -1.76638925      -0.85756416      -0.45150303
H       10.63557300       1.82219000       0.61205800       0.02036905      -2.60729542      -0.02113323
H       10.87304700      -0.14100000       1.11303400       4.16070806       2.23813534       0.36708657
H       11.06744100       0.71725900      -0.83635100       3.05061017       0.32992499       1.72211593
H        8.34155700       1.81664700      -0.22804400      -1.07670669       2.23329318       2.20725043
B        8.54937800      -0.36650600       3.61845300       5.09056322       3.08370967      -9.88732429
F        7.98268800      -1.62595300       2.14444300       1.24127181       0.31256808       0.15696358
F        7.88379900       0.55845500       2.82443300       0.43174563       0.60737160       1.52612551
F       10.07844500      -0.17419000       3.29763400      -4.76610893      -1.25844244       1.87167755
F        7.88224300      -1.04188500       4.42869500      -1.67781503      -2.82471825       4.83033423
48
Properties=species:S:1:pos:R:3:forces:R:3 energy=-41156.5500100877 pbc="F F F"
C       -2.07481200       0.19297200      -0.39774400      -8.38432267     -14.70597649     -13.13464257
C       -0.98670400      -0.41699600      -1.58903500     -50.28306844      20.43973496     -12.33918686
N        0.05114500      -0.62713200      -1.38154800       7.99329274      38.44454532     -10.54531903
C        0.32235200      -1.53775100      -1.10342900      22.65079486     -77.61498535      17.59097834
C        1.85944100      -1.74541300      -0.95389600     -11.87893641       4.64330243       0.82582875
N        2.29091400      -0.45349100      -0.73549800     -31.45283697     -13.12773143      -4.43690234
C        3.31366900      -0.05333400      -0.65933700       3.79268117       7.53692248     -37.23526007
C        0.93764400       0.11236100      -1.17046500      17.78600375      27.32619739       3.05785238
H       -1.75328600       0.47986600       0.36638700       7.07068289       5.94383031      14.49293161
H       -2.96245800       0.68210400      -0.71749100      -0.38083963       1.65621506      -1.38139285
H       -2.86834100      -0.96257900       0.02391000       3.54588702       4.17750675      -1.25729013
H       -1.23378200       0.85504900      -2.17272600       2.49627801      -2.85783071       1.89156159
H       -1.63160400      -0.53365900      -2.57034800       1.57021149      -2.81600938       2.18463172
H       -0.34083800      -2.84611200      -1.22059500       2.15659839       5.91209247       0.18817790
H        2.43979800      -2.47907600      -1.00126000       5.75579154      -8.05987369       0.12855457
H        3.68862700       0.95100300      -0.12686200      66.22868998      43.12904470     -28.75262957
H        3.75459400      -0.51447600       0.12673600      40.70964834     -36.32873633     -31.79058046
H        3.80263500      -0.05258000      -1.82517200      -1.45325060       0.98880952       0.92453493
H        0.68247100       1.42864300      -1.16919700       1.46739788      -5.44547458      -0.22762448
B        0.96826000      -1.22560500       2.33976800       6.71599442      27.19004118      41.88426862
F        0.91071300      -1.76971200       1.48426100      -4.20493596     -24.82030516     -35.81331370
F        0.66535500       0.16388900       2.47658800      -1.42250277      -1.21533893      -0.72075235
F        2.64283100      -0.82644300       2.51629900      -1.40964159      -1.18505068      -0.69122472
F        0.77972600      -1.65548300       4.04531100       0.45572032       0.22413283      -5.21818364
C        4.43421200       0.08093400       0.26452800      41.34971249       5.17958216       5.80521042
C        5.47875900       0.01503800      -1.11186700      -4.14932538     -20.60797852      15.78840629
N        6.63662400      -0.54069100      -1.08039600      -6.71660247       6.68217639      -3.67675881
C        7.03411500      -1.67596800      -0.86995000     -18.37764207     -19.00784929      -4.74114507
C        8.17031800      -1.58773500      -0.67821800      28.20037232     -11.10819009       7.63315326
N        8.57794800      -0.44451300      -0.31292900       2.83781089      10.80543856       1.05286646
C        9.95166300      -0.14797400       0.21535800      -2.89500853      -7.01047399     -13.43559758
C        7.30350000       0.49135400      -0.83819100      12.14333083      -4.45078433       6.10145263
H        4.94377500       0.82847100       1.01854600      -0.74171691      -0.80599880      -1.02293750
H        3.39695500       0.81984900       0.01783000     -71.95165658     -16.06043345      37.03629423
H        3.48390100      -0.38405100       0.37693800     -53.14928873      12.49622772      55.02248050
H        5.30040400       0.59489100      -1.65319200      -5.09045938      19.70793044     -16.69955312
H        4.60644600      -0.91546200      -2.18028700       0.69391029       2.14045075       2.40709637
H        6.61038700      -2.77131900      -1.06971400      -0.29652646       3.51990761       0.38404067
H        9.13528600      -2.59059500      -0.37374600      -4.41738171       3.80846426      -1.57558527
H       10.19640900       0.69095300       0.44410400       1.88641140      13.27991833       4.96958726
H       10.38892200      -0.86024200       0.77969300       1.85731672      -3.94928402       2.30168905
H       10.63600800       0.22078900      -1.14659900      -1.57648174      -2.34740353       4.62288136
H        7.62628300       1.38975200      -0.91520900       0.98378936       8.15971382      -1.11375919
B        7.70136200      -1.13373900       2.91175900      -2.99608099       3.39956056      -8.40645546
F        7.57527400      -2.01847200       1.77032900      -1.34966167      -1.10448462      -1.20352564
F        7.01396600       0.08648800       2.55572300      -0.18756059       0.16447938      -0.40992333
F        8.96852800      -1.06517800       2.95013500      10.49733202       2.32305446      -1.50062716
F        7.41256800      -1.53670100       4.01810500      -6.07430376      -4.64652275      11.03539220
