48
Properties=species:S:1:pos:R:3:forces:R:3 energy=-41279.2283760364 pbc="F F F"
C       -2.69088700       0.27028400       0.58952300      -4.19990671       3.11402845       4.62810109
C       -1.85726700       0.16853300      -0.55795900       1.54374129       0.74990744      -6.73680023
N       -0.46013400      -0.23342600      -0.27703500      -1.49498173      -1.89407105      -0.57683857
C       -0.09396200      -1.54967600      -0.27435000       7.47963960       0.45839114       1.63335110
C        1.34655200      -1.55235900       0.06754300      -5.66485443       0.13273114      -0.44332104
N        1.65830900      -0.19045800       0.17485700       5.04690364      -4.35377763       1.32465239
C        3.00835000       0.22522900       0.51556500      -0.39765979      -3.61388849      -3.40958031
C        0.62724900       0.53362200      -0.02738200      -5.19717097       5.14480614      -0.64386972
H       -2.00530200       0.71514600       1.39540300      -1.48220110      -1.17468377      -0.18442231
H       -3.50756500       1.10242000       0.38957800       1.70021449      -1.86419462       0.41166208
H       -3.27426200      -0.65825000       0.84421700       1.07759718       0.67789945       0.29612788
H       -1.69512800       1.16425200      -1.07370400      -0.59436618      -0.65132730       0.39552540
H       -2.26615200      -0.54448300      -1.35975600       0.70463751       0.81502393       0.97416642
H       -0.59975100      -2.43490000      -0.35350200      -2.76105261      -2.61733975      -0.52056635
H        2.01972500      -2.36222800       0.23245400       0.98242016      -0.82654669       0.18164895
H        3.02781100       1.16645300       0.91141000      -0.15113084       3.59086287       1.98772522
H        3.47303800      -0.55377700       1.14306700      -1.03605449       0.60152949       0.54626377
H        3.65897800       0.23717100      -0.43135100      -3.70903498      -0.57897538       0.78007938
H        0.53313100       1.59646400      -0.02317600       0.29137791       1.32154461       0.14293515
B        0.74533200      -0.82559000       3.55388900      -1.85922920      -1.38646685       0.29900089
F        0.36444100      -1.80252100       2.48651000       0.75321425       0.07138792      -0.23682892
F        0.00514500       0.31550800       3.21908300      -0.27684259       0.62639962       0.10462551
F        2.08577000      -0.59224300       3.53635100       1.61663301       0.24176777      -0.35794515
F        0.35421700      -1.42760700       4.79777700       0.03375228       0.54572767      -0.88690037
C        5.42937700       0.13397100       0.30530700      -2.62456709       0.09044726      -0.30103922
C        6.24766600      -0.03024700      -0.92383000      -0.66234877       3.37397421      -2.68990092
N        7.57215000      -0.40209700      -0.63177500       3.96520983      -1.68468484       0.83738497
C        8.04500400      -1.68073400      -0.51197400       2.35851804      -2.19520019       0.15562685
C        9.43127600      -1.69144500      -0.25227400      -6.61428110      -4.91012404      -0.91750521
N        9.78374700      -0.47260900      -0.19766700      -0.02165749       8.72185960       1.57482886
C       11.05900900       0.05631600       0.20104400       6.39336121       1.37269437      -1.89220686
C        8.65908000       0.35742000      -0.29185600       1.05102192       3.88311464      -0.24873099
H        5.96518000       0.63568500       1.06643900       1.36651178       0.08231521       1.85733976
H        4.61822900       0.88746200       0.00828300       3.76513521      -0.70998666       0.94812745
H        4.86882800      -0.83926500       0.59926700       2.65149479       1.87610847      -0.25309909
H        6.37960600       0.96072400      -1.48105900      -0.57758818      -0.89596658       0.69214331
H        5.86610700      -0.71922400      -1.66185100      -0.65578772      -0.93209749      -0.53350339
H        7.48578400      -2.53504000      -0.68454400      -1.92860953      -2.16664318      -0.43343657
H       10.02998100      -2.49330100      -0.07889700       2.50118338      -3.23683661       0.58680230
H       11.15958300       1.14440800       0.63734300      -1.16918478      -2.44571043      -0.47245449
H       11.66509900      -0.71792900       0.81694200      -1.37639842       1.38819576      -0.55989201
H       11.63328000       0.12431500      -0.85649400      -0.81253686      -0.00981669       2.58185191
H        8.74440900       1.46544000      -0.41274900      -0.15642323      -0.85091849       0.18417488
B        8.76061900      -0.98213300       3.24823300       2.12549273       0.35330827       1.67357211
F        8.57709100      -1.77036800       2.15643700      -0.83597388      -3.40628068      -3.00855303
F        8.06061100       0.13603200       2.98123800      -1.51081028       3.35836393      -0.29321466
F       10.18647300      -0.77452700       3.19073100       0.54588881       0.49756286       0.44410725
F        8.40803000      -1.48960300       4.48980700      -0.20009608      -0.72916068       0.34094327
48
Properties=species:S:1:pos:R:3:forces:R:3 energy=-41276.2144650898 pbc="F F F"
C       -2.76026800       0.33588200       0.20162800      -1.11215251      -3.59468851       3.62184026
C       -1.94336500       0.07695700      -0.99688000       5.59887932       7.95902720      -0.73121014
N       -0.42651400      -0.33020800      -0.62225600     -12.44771595      10.14288830      -2.84828418
C       -0.16564700      -1.52088500      -0.57092800       6.12701317     -13.76419656       0.56640839
C        1.22529400      -1.55125100      -0.31972400       0.01818508      -4.01387861       0.99351554
N        1.64515700      -0.27368500      -0.24246700      -1.67407059       1.77247816       0.83718109
C        2.89636700       0.25211500       0.20413400       0.40517484      -0.88313316      -6.80296574
C        0.54747400       0.50770300      -0.39840200       2.13317326       2.14452187       0.47209343
H       -2.11658700       0.74708500       1.03669800      -0.51746397      -1.06857521      -0.43677459
H       -3.48106500       1.09370800       0.04614700      -1.55554013       1.21741667      -0.78244758
H       -3.32890600      -0.67681600       0.45326300       1.37292236       2.59310429       0.25802836
H       -1.71461400       1.21392200      -1.47360800      -0.75599802      -3.60031549       1.02141459
H       -2.32153900      -0.48237000      -1.78471300      -0.90432640      -2.48618916      -2.08330779
H       -0.72492500      -2.44565500      -0.74818200      -0.68939960       0.60193757       0.04035885
H        1.91602000      -2.37313000      -0.12889300      -0.02658927      -0.29076407      -0.10286844
H        2.99711800       1.24448900       0.59582100      -1.85265382       0.75295659       0.89515860
H        3.32454500      -0.52362000       0.75089300      -0.44603939      -1.20958670       1.75777858
H        3.45378800       0.23720500      -0.86024100      -0.72981318       0.37705447       2.70520690
H        0.59356700       1.54753900      -0.39355300      -0.44931942       2.51084951      -0.02963272
B        0.62230900      -0.87688500       3.20058900       1.34662271       2.01585454       0.67085762
F        0.33928100      -1.71188400       2.07211600      -0.30456868      -0.76049237       0.00174270
F       -0.08958900       0.36874900       2.92410200       0.53605488      -0.65912241      -0.07375747
F        2.07106900      -0.67067100       3.16998400      -1.37950181      -0.02898527      -0.16783011
F        0.26160100      -1.27972100       4.51992200      -0.05548935      -0.46410377      -1.40752010
C        5.14140500       0.41965700       0.66981300       1.52211526       1.17583208       9.65471528
C        6.03719600       0.28827300      -0.38393400       1.09524755       1.64739395      -9.45452375
N        7.38145700      -0.17456500      -0.25515300       1.06454525       0.81954229       1.46177190
C        7.82221500      -1.47330400      -0.10025600       1.96209117       1.49878758      -0.22685631
C        9.14013200      -1.40664600       0.14152100       2.18746203       0.27111456       1.37164072
N        9.50035000       0.00280800       0.27083400       6.99516492      -6.14814600       2.42069102
C       10.85627400       0.48261200       0.78682500       3.41096488      -6.43477520      -7.06206149
C        8.43174500       0.64250300       0.12077600      -5.70450768       8.62487351      -1.04009683
H        5.85539700       0.83405400       1.56137300      -2.20773669      -1.24137075      -1.59525836
H        4.45333700       1.24128900       0.46694400       1.31036049      -0.18243215       0.46652471
H        4.60609000      -0.53705600       1.02615400       2.92976545       1.93922099      -0.14230411
H        6.14036900       1.28662800      -0.97600600      -0.06044867      -1.28850697       1.32548268
H        5.67204600      -0.35752600      -1.20519700      -0.55629855      -0.34211741      -0.00749180
H        7.28824800      -2.32788300      -0.21205600      -2.69899157      -3.27233131      -0.56090400
H        9.83104800      -2.20185200       0.36575600       0.68207940      -0.45949027       0.05748850
H       10.98225200       1.46590800       1.09930800      -0.53723053       2.78964879       1.70239071
H       11.33975000      -0.42952400       1.36900300      -1.23486072       2.55394252      -0.54174023
H       11.47871500       0.45240000      -0.41437200      -1.66659843       0.28448885       4.67989343
H        8.54499200       1.78386000       0.06578600      -1.25623927      -1.61676862       0.07506410
B        8.57379100      -0.70003500       3.66946600       0.22880942       0.07988747       0.55269698
F        8.24861500      -1.63664800       2.58363400       0.32751230       0.76088029       0.62141224
F        7.90368500       0.60079700       3.30003600       0.75479455      -2.17290419       0.73067014
F       10.00124700      -0.46034600       3.69665200      -1.51626688      -0.22287395      -0.25980961
F        8.18244300      -1.34615000       4.95887100       0.32176840       1.68725780      -2.60335987
48
Properties=species:S:1:pos:R:3:forces:R:3 energy=-41269.1265574431 pbc="F F F"
C       -2.50060700       0.27701600       0.63650200      -1.10833945      -0.42069291       0.15734482
C       -1.51460400       0.10935200      -0.55788800      -4.06019187      -6.43500948       1.51799201
N       -0.16284300      -0.34192000      -0.24200500     -10.27983252      -3.77101658      -2.43995957
C        0.14756900      -1.63886800      -0.24427000       4.53292995      -7.05559472       1.31569525
C        1.56550300      -1.68286000       0.13291000     -13.52819145      13.35349488      -2.13121936
N        1.89621800      -0.26710400       0.23713300       3.30519907      -5.70005515       0.63796350
C        3.33419400       0.20529300       0.42735400     -12.27840865      -3.47578863       5.13987389
C        0.81902400       0.38030400      -0.05783100       4.99998500      14.14672980       1.90276991
H       -1.82342800       0.69326200       1.40307500      -1.01333839       0.03744079       0.86528071
H       -3.30416700       0.99917800       0.28930800       1.08793522      -0.42430075       0.64498624
H       -3.08872700      -0.67472300       0.96021300       1.78801380       1.54261596      -0.46909016
H       -1.48382500       0.93844300      -1.06863700       0.77085932       6.62882958      -3.48011776
H       -2.01588000      -0.60947900      -1.26777300       0.99472907       0.08164482       0.42608290
H       -0.50045300      -2.58210800      -0.31813000       0.50937397       2.08161041      -0.06662177
H        2.12009400      -2.36589100       0.25342200       9.99292966     -11.86740523       2.16058372
H        3.25197100       1.13668200       0.98508900      -0.82271756       0.45965388       0.23259219
H        3.76337500      -0.58427100       1.18555100      -5.29322799       1.30720004       0.72294484
H        3.81114300       0.16321400      -0.47013500      -2.54380981      -1.08374473      -4.56035318
H        0.82304300       1.55829700       0.03568400      -0.40920731      -2.78222922      -0.47214152
B        0.87648900      -0.94148300       3.60530000       4.18246550       3.12190599      -6.73195443
F        0.55809300      -1.89459800       2.47073300       0.65719924       1.07374075       0.30228924
F        0.27032500       0.30578200       3.35920200      -0.42027912      -0.29072054      -0.28329586
F        2.38797700      -0.64909200       3.57394200      -1.89880225      -0.50719722      -0.83622892
F        0.64947000      -1.49058400       4.70668000      -2.11500950      -3.30597150       6.53533328
C        5.28794700       0.41001000       0.32525400       1.78019448       1.14874767       1.41506382
C        6.15587600       0.19124900      -0.92993400      -6.90435787       8.07577555       1.10082629
N        7.36151500      -0.18269600      -0.54893100       7.96875105       2.23696625       0.75849630
C        7.88022500      -1.40750100      -0.56754600      -5.05497805      -5.02174082      -1.13374423
C        9.09213800      -1.40034600      -0.21730600      12.80827653      -3.21667046       2.88439797
N        9.62033900      -0.06968800      -0.08100700      -2.98663391      -2.45261835      -0.37596352
C       10.97278700       0.40109600       0.24495000      -1.33986107      -0.43164064      -5.04359847
C        8.47875700       0.65080400      -0.30958700      -0.61695152      -0.37722946       0.26685874
H        5.83365600       0.86257900       1.17657100       0.57236202      -0.91005353      -0.09497855
H        4.42484500       1.21254300       0.10410300       7.40369678      -0.03139724       0.35321207
H        4.53679600      -0.53426600       0.54082900      11.33136594       2.29822298      -1.19420553
H        6.06067500       1.23997500      -1.33389300       1.43260910      -0.88848611      -0.66333240
H        5.65789300      -0.39940300      -1.58163200      -1.69781327      -3.31169852      -3.15242069
H        7.36071200      -2.33512900      -0.56750500      -1.41642591      -0.84933351      -0.57101934
H        9.89539900      -2.26067800      -0.08222400      -2.41668399       1.83637697      -0.31910777
H       10.82723400       1.34170300       0.63899100       0.35458789       3.23917326       1.57665000
H       11.44174900      -0.28899600       0.81721300       1.92886556      -2.87055191       3.45941423
H       11.50888600       0.37523500      -0.72653300       0.31266803       0.78660119       0.11277182
H        8.51573300       1.66846200      -0.25540200      -0.61999324       3.96013390       0.06196935
B        8.59078400      -0.74104700       3.19023100       0.88181298       1.45575979       3.07499544
F        8.25417700      -1.61121000       2.16364700      -0.09745535      -0.32360673      -0.42432539
F        7.93615700       0.54418800       3.07127800       0.29126217      -0.73429464      -0.76837476
F       10.01961700      -0.54414500       3.31208900      -0.87616121      -0.16778293      -0.88320417
F        8.20813200      -1.20371600       4.53851600      -0.06757562      -0.16621647      -1.53315689
48
Properties=species:S:1:pos:R:3:forces:R:3 energy=-41279.729569465 pbc="F F F"
C       -2.70884600       0.45212700       0.78710100      -3.93242221       4.74799868       0.72227036
C       -1.88128600       0.34857200      -0.45843300      -2.14840345       1.49688103      -1.76989393
N       -0.60829200      -0.18512300      -0.17619600       5.02117534       6.22652695       1.65716448
C       -0.13931000      -1.37445900       0.05054000       3.53053879      -8.74489237      -0.37114856
C        1.29255100      -1.38965300       0.27425500      -6.44584580       2.49690368      -0.59509359
N        1.60662400      -0.05748900       0.37193400       1.26211643       1.29457292       0.73833166
C        2.99534700       0.43418700       0.72222600      -1.91248141      -3.96762446      -3.33904792
C        0.48650200       0.72161600       0.26104500      -2.23434347      -0.35891934      -1.24895051
H       -2.16660900       1.01544200       1.60567500      -0.22815928      -1.68522306      -0.30715507
H       -3.50321600       1.27709600       0.50469300       1.31556682      -1.65638422       0.47922625
H       -3.37291700      -0.38641300       1.02294800       0.89766116      -0.65263029       0.65077708
H       -1.75975700       1.38966700      -0.90245100       0.11033443      -1.25639952       0.24379882
H       -2.31256800      -0.32507900      -1.20094000      -0.69605057      -0.12210436      -0.56214264
H       -0.62928600      -2.36172700      -0.20137800      -0.18230612       1.36928520       0.41752133
H        1.82086000      -2.23204600       0.46627500       2.87139991      -3.12755109       0.82239585
H        2.97562800       1.41165000       1.03235300      -0.39310991       3.41308560       1.94266228
H        3.28295200      -0.34069400       1.45792900       0.62910924       0.71444874       0.22521295
H        3.54059700       0.46079800      -0.27642700      -1.25339894      -0.89250145       1.29182116
H        0.47384800       1.80665700       0.15374400      -0.04847812       0.21116307      -0.09396792
B        0.64633700      -0.61329700       3.71153800       2.88079894      -2.00352501       1.44101882
F        0.34991600      -1.60550800       2.66858600       0.31081065       0.22382911      -0.11179967
F        0.03077900       0.53909900       3.41144700      -1.15694045       2.24671742      -0.87166036
F        2.13315400      -0.41835500       3.77950500      -2.01355011      -0.38145195      -0.67093402
F        0.23218800      -1.12517800       4.97650800       0.02103786       0.00506627      -0.81356641
C        5.58147200       0.53073600       0.48373500      -3.59520211      -2.85741548       4.90306275
C        6.40416900       0.26854000      -0.66277100       0.86868847       5.41015006      -5.10156433
N        7.72411600      -0.09150900      -0.41588800       8.62871137      -3.95507616       1.60836389
C        8.27223200      -1.52142200      -0.35427300      -5.80565835       6.21557954      -1.51375129
C        9.48414500      -1.42477000       0.00063000       6.40883210      -0.43106598       1.89947113
N        9.94923400      -0.09784900       0.08608500       1.12077672      -1.49157877       0.95073438
C       11.30577600       0.35881400       0.43575300       0.68078915       2.25332204      -5.65656650
C        8.90795000       0.69864200      -0.10963600      -5.75322218      -1.57238107      -0.73450755
H        6.16827600       1.00362500       1.32812100      -0.54712268      -0.91423929      -0.56463270
H        4.78360900       1.20034900       0.19297700       0.86319300       0.92706847       0.06436169
H        4.93505100      -0.49427700       0.79336700       3.45235573       3.34019108      -0.34340207
H        6.55489700       1.29605100      -1.22767800      -0.61125419      -1.64287376       0.92589552
H        6.07797200      -0.35271600      -1.46211200      -1.41047536      -1.54046334      -0.86938547
H        7.62250800      -2.28464500      -0.44382200      -2.82431739      -3.64683110      -0.57519846
H       10.17921200      -2.20260100       0.14256100       1.37382209      -1.50710307       0.35516235
H       11.21710200       1.41520700       0.76611400       0.36209103      -0.44172179       0.30836232
H       11.82920500      -0.29303100       1.05565900       1.00777171      -1.76617613       2.39664293
H       11.86824400       0.32637100      -0.62612100      -0.84232468       0.44719151       2.61755178
H        8.86842500       1.72600700      -0.08413300       0.15241479       3.46793883       0.13426631
B        9.08172500      -0.75357700       3.38380900      -6.04577337       1.38616147       0.25385268
F        8.65949000      -1.53244300       2.29395400       0.21413979      -0.47443616      -0.40304813
F        8.29300200       0.63676200       3.10462000       1.06679487      -1.82092339       0.04496847
F       10.33352900      -0.47187700       3.41466200       5.44640073       1.14423688      -0.44315178
F        8.62616200      -1.22775700       4.61256200      -0.43178102      -0.11717136      -0.15193669
48
Properties=species:S:1:pos:R:3:forces:R:3 energy=-41273.865496829 pbc="F F F"
C       -2.62752900       0.37786800       0.58468200      -6.45728900       0.98765523       8.62689090
C       -1.75610900       0.14221400      -0.50648600      -4.51219312       4.72403194      -6.00401972
N       -0.50301800      -0.19810500      -0.26214100       9.66635662      -1.25611620       1.86929034
C       -0.08352600      -1.46305600      -0.13572400       4.15746517      -3.78430144       0.60874611
C        1.30353400      -1.40793700       0.13335300      -0.01606162     -10.28471887       1.16007598
N        1.72556500      -0.16877200       0.23019900       3.07988099      -0.14656858       1.36314294
C        3.08492800       0.28553000       0.54696700      -6.89535236       3.36600825      -1.66013127
C        0.70871300       0.53032300      -0.09096300      -8.29218469      11.17554766      -1.21498049
H       -2.00023400       0.93230000       1.47935100      -1.80146966      -2.08986506      -2.19484947
H       -3.53211400       1.12546300       0.39741800       2.36265183      -1.56741948      -0.33005209
H       -3.24645700      -0.60254400       0.99301800       2.49338443       2.67859148      -0.85349473
H       -1.66982800       1.12173500      -0.98730300      -0.05934334       0.68555131      -0.68199317
H       -2.09863900      -0.47812700      -1.30385700      -1.21476427      -1.32749996      -0.95607314
H       -0.58618200      -2.37834100      -0.37261600      -1.12693390      -0.62269911       0.00574988
H        2.02560300      -2.31576300       0.38898900      -1.93779672       2.27127647      -0.80520822
H        3.01914200       1.39207200       0.95080600      -0.83217124      -2.58083191      -0.03097787
H        3.55752300      -0.43649600       1.19197100      -3.47399796      -0.03172736       1.32517633
H        3.62470500       0.41045600      -0.41735500      -3.11087711      -1.89579638      -0.75365092
H        0.56428000       1.68169700       0.00216400       0.83291995      -2.25559422      -0.15831489
B        0.73050800      -0.79586300       3.50753800      -1.14729998       1.76829881       3.27386103
F        0.33269900      -1.68593400       2.49607500       0.30417332       0.04328760       0.00894452
F       -0.08192300       0.48790100       3.36796500       1.65569365      -1.87855596      -0.53176644
F        2.12765300      -0.61357600       3.64962000      -0.48499781       0.29338600      -1.47235838
F        0.36876400      -1.21774800       4.88945800      -0.31675447      -0.13075193      -1.82970318
C        5.18226000       0.33825500       0.59980400       3.21595100       3.76480115      -0.45375753
C        6.07679400       0.24765500      -0.65431300      -3.91339133      -6.93622492      -0.62216673
N        7.37494900      -0.25323800      -0.29226800       1.83591750       1.73975328      -0.69394384
C        7.88407500      -1.53055000      -0.27904200      -3.44171106      -3.26574811      -0.02105450
C        9.17848700      -1.50164600       0.09299000      -4.24942815      -1.97419111      -0.35582844
N        9.43992100      -0.23241500       0.11206400       7.26398861       5.20124145       1.90296309
C       10.77390300       0.25515900       0.41179400       3.68335363       1.93864936       1.42302836
C        8.45907600       0.62913900      -0.09257400      -3.72005422      -2.20533517      -0.43787378
H        5.69622900       0.79312400       1.44207500       0.89522689      -0.40674946       0.62223084
H        4.34448000       1.08659700       0.32965900       6.52314765       0.07315620       1.63582133
H        4.58051300      -0.52336200       0.85336000       5.49516532      -0.99908934      -0.44765240
H        6.16758000       1.13584000      -1.13286400       0.61141770       4.24899883      -2.07556121
H        5.61674300      -0.55638100      -1.47516200       1.15822555       2.44007901       2.40248148
H        7.28375600      -2.43551300      -0.44719400      -0.25530610       0.35261983      -0.04118045
H        9.84112500      -2.24870100       0.07256300       3.62914949      -3.71897448       0.37956646
H       10.78156900       1.25367100       0.96905500      -0.49856532      -1.19154517      -0.87878651
H       11.37084000      -0.42296200       1.06841800      -0.87186902      -0.15265778      -0.12768854
H       11.38840900       0.36335900      -0.50824900      -0.37944068       0.13880741      -0.11376426
H        8.50486500       1.66433000      -0.04880500      -0.10386289       2.71170381       0.14309959
B        8.58408100      -0.76175700       3.52317400       1.24049551      -1.43125462      -0.70165958
F        8.16103800      -1.83126200       2.46230100       1.22090109       1.21563032       0.35906583
F        7.93425100       0.38876700       3.15135800      -0.75561243       0.81464199      -0.22160316
F        9.99684900      -0.51005400       3.58771200      -0.90738025      -0.52191750      -0.82974585
F        8.20566200      -1.36432500       4.71379500      -0.57943267       0.01410655       0.38881652
48
Properties=species:S:1:pos:R:3:forces:R:3 energy=-41277.4206575289 pbc="F F F"
C       -2.78731200       0.43995500       0.35751600       2.64907980      -0.98710396       2.28193856
C       -1.83647700       0.29815400      -0.82990800      -2.51879134      -1.51419588      -4.67033157
N       -0.47042400      -0.14683500      -0.54819900      -4.09227913       0.56441745      -1.13119851
C       -0.18416800      -1.45282400      -0.51904300       8.49797820       2.46135718       2.11303935
C        1.19464700      -1.35466400      -0.10159200       1.90919453      -9.93424850       0.65994633
N        1.71632700      -0.12771600      -0.01471300      -7.23603109       1.19278497      -1.87646297
C        2.98638000       0.36408400       0.16944800       2.02950177       0.66865214       5.38940507
C        0.58483700       0.62711300      -0.37888400       2.60681970       3.90468402       1.22723226
H       -2.15893400       0.84258800       1.24606500      -1.32007141      -1.05500677      -1.13075898
H       -3.46615600       1.18330100       0.08074100      -2.04485170       1.73697263      -0.45064933
H       -3.31034400      -0.51528000       0.56649100       0.31796932       0.41792174       0.35136107
H       -1.77920000       1.20089200      -1.42820500       0.37416411       1.38264256       0.21014334
H       -2.25130600      -0.42542000      -1.71975400       0.94304812       1.27547226       2.88132048
H       -0.66081000      -2.31757800      -0.57654900      -3.70457949      -4.49351264      -0.57641541
H        1.99308100      -2.25255300      -0.08908200      -2.41678523       2.12927422       0.25507911
H        2.89807200       1.36764900       0.68153000       0.29871454      -0.85591221      -0.65403506
H        3.51693300      -0.35572600       0.88538500      -1.50362873       0.98183165      -0.86590655
H        3.47803100       0.37561500      -0.73373100       2.05812085       0.47417114      -3.18084453
H        0.56318000       1.69542200      -0.28349800      -0.24469469       1.02205096      -0.03993065
B        0.64683300      -0.78144600       3.26496600      -0.20051351       1.65018871       0.82031883
F        0.31778800      -1.65609100       2.19244400      -0.51772719      -0.84179271      -1.41625251
F       -0.08625100       0.46633800       3.08280800       0.61549800      -0.76044671      -0.36614677
F        2.02964900      -0.61182600       3.17131000       0.55453559       0.51522091      -0.00835745
F        0.27715800      -1.29359100       4.51914100      -0.10453195      -0.41142395      -0.25280333
C        5.62503600       0.57622700       0.66799900      -1.90044252       8.34164412       0.89989420
C        6.52506300       0.49194700      -0.55799900      -8.91491903       3.83441395      -4.09827400
N        7.76052600       0.08926800      -0.25888400       7.49747292       6.06072451       0.59132351
C        8.28198200      -1.05247100      -0.18536300       1.17792573     -16.08436088       1.08915661
C        9.65948800      -1.12431100       0.22231000      -5.27100145      -1.78306186      -1.02479878
N        9.94929700       0.17874100       0.25869700       8.05457433       1.22487260       1.35599516
C       11.45031500       0.70917300       0.51142600      -5.48278965      -9.40867487       3.45206324
C        8.91903300       0.91866700      -0.01557100      -5.51369322       4.38605439      -1.03076458
H        6.19465200       1.16079400       1.49278300      -0.78666149      -2.27795589      -0.64375947
H        4.79542900       1.51222300       0.41221700       3.31387893      -2.99355550       0.55927957
H        4.89619300      -0.15914000       0.89417900       1.31911258      -1.95532070       1.06195921
H        6.46183300       1.54794100      -1.03882300       1.14802004      -1.51703694       0.94967031
H        5.99405400      -0.09076700      -1.37486000       1.02219253      -0.34662227       0.79958829
H        7.63057300      -2.08394200      -0.30917200       1.83489089       3.36369751       0.24673051
H       10.26132800      -1.99222900       0.31205200       1.19497232      -0.93481483       0.28183916
H       11.26100300       1.56848600       0.88730400      -0.70209127       7.97542599       3.90076097
H       11.75754600      -0.10910900       1.20949300       0.74659453       1.12067683      -0.15695529
H       11.84443800       0.71551400      -0.37454300       3.75397548       0.03413778      -6.86319022
H        8.82332500       1.97838300      -0.02814100       0.23112647       1.32242569       0.09610309
B        8.99207200      -0.37513100       3.55049400      -1.43746646      -1.49177014       0.40635717
F        8.51839800      -1.44083000       2.45979900       1.51965002       1.77220464       0.76492637
F        8.24843000       0.78264600       3.33551600       0.12208984       0.34777769      -0.81219247
F       10.37776100      -0.14086200       3.55326900      -0.51173898      -0.44384805      -0.68667056
F        8.53818300      -0.95852800       4.77090700       0.61879570      -0.04608758      -0.72306373
48
Properties=species:S:1:pos:R:3:forces:R:3 energy=-41279.6505067999 pbc="F F F"
C       -2.69580500       0.39362600       0.45917500      -1.67756045       4.09299450       4.90605821
C       -1.85568100       0.25835600      -0.71168100       4.44014318       4.63107011      -1.09713519
N       -0.42291000      -0.14951600      -0.38572400      -4.70601692       7.01380051      -1.21562053
C        0.01962400      -1.32491800      -0.33461900       0.76441715     -15.33922772      -1.18367599
C        1.38354700      -1.47252200      -0.07379400      -2.06330861       1.58959072       0.07236041
N        1.66175200      -0.07424300       0.01932700       8.50575926      -2.55243776       1.52403241
C        3.03420500       0.50832500       0.34578000      -0.33196596      -7.52921083      -4.09777323
C        0.64241300       0.67275300      -0.17982200      -3.66179842       6.86722300      -0.33513303
H       -2.09933700       0.92926400       1.34459600      -1.03212349      -2.16869758      -1.73678729
H       -3.37176100       1.25848200       0.22792300      -0.31735419      -0.96315570      -0.05134370
H       -3.31336200      -0.44925500       0.79777100       0.46728805      -0.26444569       0.01300767
H       -1.67161300       1.30905000      -1.19122600      -0.52836713      -1.77344513       0.86463400
H       -2.19559200      -0.32469600      -1.48580700      -1.28741773      -2.71898777      -2.64649402
H       -0.61572400      -2.29029800      -0.64589600       1.19454717       2.81340902       1.12715678
H        2.01767000      -2.37664700      -0.00285900       0.04800734       0.81746419       0.13786815
H        3.03158200       1.43456700       0.73458900      -0.78343892       4.58747677       2.17952334
H        3.47369800      -0.28192600       0.99793900      -1.46196035       1.14569875       0.21915385
H        3.70912400       0.45174700      -0.59404700      -2.18661285       0.25936977       0.92504370
H        0.71086400       1.79114100      -0.21611500      -0.54058110      -1.04429581       0.11953243
B        0.72328000      -0.69155100       3.31130000       0.84392634       1.07585720       3.15804672
F        0.38183200      -1.64513300       2.35514500       0.07354787      -0.53118563      -1.12644421
F        0.02918700       0.53653300       3.13575400      -0.00165033      -0.04391942      -0.85263589
F        2.15564500      -0.41488000       3.34456000      -1.46314946      -0.56023942      -0.50172074
F        0.28035900      -1.17963000       4.63454900       0.66709161       0.14101138      -1.46791839
C        5.42441200       0.37095300       0.81000800       3.66033268       4.04194494       1.61485684
C        6.30138300       0.19870400      -0.36359300       2.56685029       1.26227893      -6.49014613
N        7.74781800      -0.19552200      -0.17414700      -0.49583804      -2.17657318       0.81936827
C        8.15808800      -1.52057800      -0.05406800       3.13479203      -0.32402165       1.03816039
C        9.53869100      -1.41323300       0.36298100      -3.80295740      -9.58796340      -0.26126242
N        9.95063000      -0.19440500       0.39669600      -1.41686439       5.83518012      -0.84124517
C       11.26064200       0.31156100       0.69196500       1.72742946      -4.91316069      -4.23876889
C        8.84269800       0.57268800       0.11108900      -1.09155440       5.52931064      -0.12292986
H        6.05942600       0.82982900       1.61764100      -0.67204880      -1.00582935       0.03586931
H        4.74266800       1.16779100       0.51086500       0.80141809      -0.09052199       0.73503031
H        4.96178200      -0.53463300       1.02017700      -0.47171119      -2.04277059       1.40247125
H        6.53699100       1.16471800      -0.98714000      -1.45306421      -1.21150300       1.36399657
H        5.90740500      -0.54447700      -1.16650500       0.50125339       0.98077769       1.51092613
H        7.56815600      -2.43264600      -0.13722000      -0.37687440       0.10075756      -0.13820478
H       10.19530700      -2.28713800       0.43496700       0.24297358       0.10040113       0.26505149
H       11.21958700       1.19657900       1.10564900      -0.44820645       6.30757602       3.36023764
H       11.58008000      -0.45736400       1.35307000       1.83988347      -0.74642058       1.30133833
H       11.82904200       0.40251100      -0.27314900       0.09186147      -0.38392005       0.74926095
H        8.78479000       1.70013300       0.13876700       0.32250589      -1.31864079      -0.00394686
B        8.90848500      -0.74917800       3.68281000      -0.19148813      -1.08013894       2.20753274
F        8.61469500      -1.68286700       2.59234900      -0.16976734       0.18003377      -0.22899265
F        8.25593900       0.47688700       3.47732100      -0.21836003      -0.39720675      -0.11343945
F       10.28616100      -0.59739500       3.69882400       0.86800209       0.31951223      -0.25181524
F        8.53935600      -1.39135900       5.00820200       0.09868339       1.07560327      -2.65239196
48
Properties=species:S:1:pos:R:3:forces:R:3 energy=-41277.0366965061 pbc="F F F"
C       -2.92175800       0.43204200       0.50016000      -5.01321475      -1.46500984       4.14871965
C       -2.02434900       0.24226600      -0.62026700      -3.62820347       2.46599699      -7.77001985
N       -0.71823000      -0.10778900      -0.42874900       8.29328016      -4.73595374       2.33360471
C       -0.28598100      -1.49632400      -0.29977500       8.93565844      10.04214818       1.98206749
C        1.14291500      -1.42834300      -0.02917900      -7.46039298      -3.05801430      -1.57174451
N        1.40465400      -0.13766200       0.00682300      17.56792045      -6.82382871       3.90881936
C        2.75215200       0.37956300       0.45878000       0.02175058       2.03143006      -5.60816425
C        0.51746700       0.60904400      -0.07327900     -19.92706651      14.46667569      -3.31476413
H       -2.33216800       0.85329200       1.34652400      -0.47920493      -0.50052012       0.13846248
H       -3.69575200       1.20252800       0.21659200       0.62168620      -0.71620075       0.29096938
H       -3.57044100      -0.56803600       0.82198200       2.42854443       3.00710899      -0.72049052
H       -1.97346400       1.22267200      -1.19655700      -0.03886756      -0.43655279       0.71026663
H       -2.42510100      -0.42168600      -1.49451400       0.34318556       0.55891356       1.90418006
H       -0.78134200      -2.27412400      -0.43607500      -6.31697912      -8.71591030      -1.61221331
H        1.80249100      -2.17812200       0.17838300       2.59115181      -2.64770625       0.68240454
H        2.79498100       1.39461500       0.85725700      -0.91055800       0.09663579       0.91479967
H        3.20971900      -0.36141000       0.99291300       1.27247563      -2.47108371       2.72155492
H        3.31253000       0.47102800      -0.53387400      -0.53965292      -0.26793419       1.11501795
H        0.45967300       1.72501200      -0.18504700       0.61949168      -0.97400103       0.43828930
B        0.47202800      -0.73066200       3.42205000      -0.34990879       1.14721867       0.64437873
F        0.20659100      -1.67208000       2.36509300      -0.22180081       0.17028311      -0.26762200
F       -0.26669200       0.52719600       3.17978200       0.73533530      -1.18731606      -0.47436453
F        1.86228100      -0.50350600       3.42390100       0.13047419       0.27307384      -0.39397220
F        0.07421400      -1.19229000       4.68880700      -0.21694861      -0.27793969      -0.40167191
C        5.61158800       0.13062300       0.65388700      -4.43651957       5.29507797       8.85703537
C        6.49329300       0.03967100      -0.41952900       0.31135068       3.99154801      -8.42612230
N        7.84938000      -0.27596500      -0.18909100       2.93576421      -4.32809706       0.63916188
C        8.27192600      -1.62315300      -0.11798100       5.52376966      -0.71517249       0.35488364
C        9.70963100      -1.71644300       0.08494300      -8.61039117       7.84758554      -0.97396978
N        9.98625900      -0.30145800       0.32532300       6.24811831      -4.77413395       0.69111863
C       11.37448300       0.17302400       0.64813600      -0.75690890      -0.18110735      -3.68443131
C        8.98154900       0.47158900       0.10744400      -5.30563873       5.82521025      -0.82353824
H        6.22231000       0.65679300       1.56414000      -1.68498257      -2.46460464      -1.63824527
H        4.85971600       1.02108800       0.51501200       1.73387477      -1.94085435      -0.27860988
H        4.92995400      -0.73772600       0.93432200       2.04833619       0.64662797      -0.08870894
H        6.57524100       1.06375900      -1.06799400      -0.55470422      -2.29231200       1.87246165
H        6.03892700      -0.64973300      -1.13448500       0.59458850      -0.78317443      -0.82864852
H        7.80046300      -2.54965800      -0.27462700      -2.33858414      -1.22024807      -0.47604833
H       10.24938100      -2.51161300       0.32038900       3.75365987      -4.45233655       1.41239225
H       11.26741600       1.18446800       0.95561800       0.34329131       1.47283571       1.33642696
H       11.77952000      -0.56500200       1.28336900       1.04583407      -0.88644025       2.11360142
H       11.92616700       0.16383900      -0.32879600       0.01282533       0.03214433       0.51929792
H        8.89832600       1.59425200       0.07638900       0.63965465      -1.10068470       0.27223059
B        8.96826300      -0.92756000       3.64072400       3.28872194       1.93425727      -0.59624841
F        8.73358800      -1.83705300       2.62843500      -0.01604036      -0.68924184      -1.17537982
F        8.38614800       0.31586000       3.42148800      -0.45897321       0.85977803      -0.85852256
F       10.54949400      -0.56967700       3.57606500      -2.76765134      -0.98311256       0.03786159
F        8.59442800      -1.38259800       4.84517000      -0.01389689      -1.07890860       1.96271691
48
Properties=species:S:1:pos:R:3:forces:R:3 energy=-41276.0247905338 pbc="F F F"
C       -2.97698500       0.32518900       0.65491100      -1.68270477       5.07839321      -8.94904377
C       -2.04382800       0.25196900      -0.67083600      -2.26934286       1.65522915      -0.46518294
N       -0.71682200      -0.24239700      -0.48253000       2.07348208       2.47586541       1.51507244
C       -0.36398700      -1.57557600      -0.38842800       8.44608918       6.70234281       2.14311704
C        0.99877200      -1.40054700       0.02503000       2.23354496      -9.59904494       0.96170617
N        1.51279500      -0.14796700       0.17217800      -9.63768295       0.80263646      -1.54342209
C        2.74063300       0.35210200       0.47585200       4.67686115      -4.34975981      -2.45116345
C        0.33605600       0.62403100      -0.07014700       0.35023393      -0.64585474      -0.13296091
H       -2.38395100       0.76239700       1.31227500       3.18386296       2.06358625       5.09760706
H       -3.70664000       1.17104000       0.24397000       1.14851284      -2.12047850       1.64767486
H       -3.51132400      -0.50464600       0.86681600      -1.83470624      -3.93429298       1.26379975
H       -1.89415200       1.27400600      -1.20046000      -0.88147074      -1.56060642       0.99538031
H       -2.39278600      -0.49957200      -1.36288000      -1.47295512      -0.18657993      -1.05064813
H       -0.85137500      -2.41601000      -0.50460000      -3.81097415      -5.36369017      -0.96944865
H        1.73311200      -2.36050800       0.21682900      -2.11727626       2.99198581      -0.57727518
H        2.82799800       1.28253300       0.89295900      -0.86861397       3.45719345       2.20288976
H        3.21619800      -0.47018900       1.14601500      -1.11988778       1.94909405      -0.83883860
H        3.33821600       0.45051400      -0.55341000      -2.24700018      -0.78684967       1.95009325
H        0.42315200       1.70114800      -0.04105900      -0.78899095       0.71322369      -0.23451230
B        0.44957400      -0.78056000       3.45891300       0.60244358       1.50384583       2.71308495
F        0.09598600      -1.66323100       2.42659000      -0.12015990      -0.09902665      -0.38219418
F       -0.19970000       0.53920900       3.29868100       0.34746607      -1.81480378      -0.10615944
F        1.86890700      -0.51538000       3.44851600      -1.14180769      -0.51564738      -0.23647444
F        0.07677200      -1.35316300       4.82131900       0.49939033       1.01223359      -2.86121173
C        5.25983800       0.33360700       0.43634400      -5.93644832       0.15046836       0.86516115
C        6.01578700       0.08227100      -0.77075600       5.81470883       8.94303910      -1.17404453
N        7.47852100      -0.21885200      -0.58043000      -6.19456670       2.44802592      -0.86136373
C        7.88677300      -1.40952500      -0.39889500       0.88592278     -15.35716433      -0.30725137
C        9.25004700      -1.51340200      -0.15664200      -3.33923998       0.84437977       1.11255303
N        9.52482900      -0.18029000       0.01115800       4.95315774      -0.68671281      -0.32612984
C       10.88991900       0.26817800       0.21737700       4.72151143       0.28187211       2.27898618
C        8.49964200       0.57407300      -0.36684300       1.73884600       7.99797250       1.05084137
H        5.85726200       0.83157300       1.19476000       0.40823823      -0.70475975       1.09983876
H        4.34802100       1.08021300       0.18107500       5.18323721      -1.02018300       0.63734006
H        4.53146900      -0.57520500       0.61274100       4.03528713       1.46400443       0.98295348
H        6.25150400       1.15174600      -1.29436400      -1.29332880      -2.09990602       1.21819894
H        5.73432900      -0.40586700      -1.58943700      -2.48372236      -4.08493167      -4.01662558
H        7.34705000      -2.49431100      -0.51886100       0.51644409       3.90823464       0.14170916
H        9.88668700      -2.33523200       0.00318600       1.28173472      -1.36451278       0.35043466
H       10.85703600       1.30916200       0.76206800       0.38332466      -2.04282792      -1.29695514
H       11.45013600      -0.54286500       0.93693400      -1.86574903       2.40617129      -1.58005608
H       11.56026600       0.24497600      -0.74720300      -1.67351156       0.55154675       1.45438571
H        8.60003400       1.68512700      -0.22441500      -0.84003399      -1.05513416      -0.45773273
B        8.74792800      -0.77931000       3.33341600      -5.07792619       0.35256650      -0.32175110
F        8.45634800      -1.73168100       2.19001800       0.36331260       0.63942338       0.89338840
F        7.97503300       0.45965500       3.03571200       0.37483102      -1.34182005      -0.11152828
F       10.01905600      -0.44319600       3.33187300       3.67409341       0.24141146       0.13567920
F        8.22201100      -1.30203500       4.57069300       0.79979720       0.09335713      -1.48132357
48
Properties=species:S:1:pos:R:3:forces:R:3 energy=-41279.4795923819 pbc="F F F"
C       -2.79973000       0.50107900       0.26349600      -1.37349317      -0.84218732       4.66178209
C       -1.91095300       0.34601100      -0.85738300      -5.02500335       1.37240539      -7.85008854
N       -0.63373500      -0.00634900      -0.62574500      10.24666503      -4.94568140       2.52851852
C       -0.11579000      -1.38412400      -0.46632400       4.64989614       7.23427945       0.57475073
C        1.28127100      -1.26154500      -0.30530200      -1.68860388      -8.04940273       0.82545885
N        1.65017200       0.00899600      -0.20403000      -0.71173848       2.25195698       0.55358719
C        2.94491200       0.50140100       0.21040300       0.33655576      -2.49616993      -3.70757701
C        0.53420000       0.76788600      -0.28159300      -4.19674207       6.21029026      -1.22070408
H       -2.13472200       0.83245300       1.09879300      -0.91435559       0.17972766      -0.00210415
H       -3.55874900       1.22435400       0.03148900      -0.75400293       0.78101079       0.05760623
H       -3.28976700      -0.43023200       0.59591100       0.12004606       0.05057633      -0.09703304
H       -1.85708900       1.33383200      -1.33334200       0.11579373       0.62794450      -0.26939269
H       -2.34364500      -0.29264200      -1.76550100       0.81691979       0.87365848       2.23010872
H       -0.60121000      -2.20800000      -0.68015700      -3.78025675      -5.41266564      -1.24026556
H        1.93091700      -2.19575900      -0.02922500      -0.95021895       2.32876587      -0.81685514
H        2.89640800       1.46944500       0.59646100      -0.73441216       2.19482142       1.38857405
H        3.38388400      -0.24676100       0.86326900      -0.81863145       0.01226355       0.65455501
H        3.53317900       0.52036200      -0.76045500      -0.67358821      -0.06212633       1.05494824
H        0.51269200       1.96503400      -0.41606100       0.25489223      -3.34606392       0.47525861
B        0.69542800      -0.55241700       3.16526300      -0.68958726      -0.21902522       3.15540052
F        0.40970200      -1.48929100       2.18581800      -0.32018247      -1.00624791      -1.03313577
F       -0.06752800       0.60877000       2.95892700      -0.00514778       0.37901054      -0.35831310
F        2.06763000      -0.30670400       3.23194600      -0.02787519       0.08178570      -0.03526718
F        0.19048100      -1.12468500       4.52955700       1.01781587       0.85236530      -2.44331470
C        5.34264000       0.76631200       0.53417500      -1.99248937       2.15997746       2.64892177
C        6.14612200       0.52409400      -0.72126300       2.56376562       4.23931341       2.30559653
N        7.55559900       0.14898100      -0.36505100      -4.36338481      -0.88994137      -1.00899429
C        7.80840800      -1.18753800      -0.21300500       7.90637788      -0.05455124       0.47016534
C        9.27658400      -1.08889200      -0.03539000      -1.12273263      -3.93669470       1.62034162
N        9.77147800       0.18415400       0.15444400      -3.67783193       1.16432303      -1.43683147
C       11.15324200       0.76159900       0.43098000      -0.74042658      -6.81547552       1.79150846
C        8.58650200       0.93964900      -0.06606900       3.38484159       5.01291243       0.89972299
H        5.88954100       1.15864500       1.45173300       0.33935763      -0.49184809      -1.43900503
H        4.53459900       1.62954100       0.29502600       3.27361042      -2.41526872       0.95007000
H        4.82788800      -0.15543500       0.89094800       1.41546256       0.82666871      -0.17527883
H        6.24329800       1.52734200      -1.12051800       0.19258617       0.67363806      -1.11294084
H        5.82373700      -0.11113800      -1.47255100      -1.40273736      -2.34941856      -1.94572110
H        7.32848800      -2.10688700      -0.49570400      -1.21509099      -0.24526023      -0.25733000
H        9.99844000      -1.86641400       0.17468600       0.14495649      -1.06323623      -0.14560289
H       10.89041300       1.67271300       0.87661300       0.56465885       2.41520603       1.43250039
H       11.60854300      -0.15174900       1.09464900      -0.77874284       3.30869550      -1.00664317
H       11.67671000       0.74590300      -0.49424000       1.11050648       0.77890630      -1.66321697
H        8.63019000       2.07264700      -0.03507500      -0.60091560      -1.45089753      -0.15705473
B        8.68273300      -0.37430700       3.40293000       1.87165409      -1.61233879       2.51821338
F        8.40548300      -1.32752600       2.37015600      -0.08244978      -0.28083697      -0.77027012
F        8.02076300       0.79110600       3.17952100      -0.68650715       1.60623735      -0.80567288
F       10.12124900      -0.22936000       3.50272900      -0.96783957       0.22540646      -0.65751553
F        8.26937500      -0.92770500       4.68813500      -0.01915893       0.14746736      -1.15883513
48
Properties=species:S:1:pos:R:3:forces:R:3 energy=-41277.3059572609 pbc="F F F"
C       -2.93329100       0.34624600       0.77644300       2.29140971       4.29514708      -2.28769330
C       -1.93864900       0.19026600      -0.48323800      -0.98225355       0.80934138      -0.29401684
N       -0.54930700      -0.32735400      -0.29832300      -6.03841883       5.38323544      -0.04820281
C       -0.17113500      -1.54155000      -0.07460000      -1.01141256     -11.07482974      -1.50878428
C        1.15621900      -1.58428200       0.09958900      -0.52966064       2.92753719       0.92032961
N        1.42422000      -0.20098400       0.25936800      17.86107073      -7.44721367       3.73432963
C        2.87789200       0.35908700       0.63508000      -2.30141446      -8.58001363      -7.14878504
C        0.46980600       0.46855800       0.06814500     -11.08572878      15.89567608      -2.52742368
H       -2.21526800       0.81324300       1.55629300      -1.81610508      -1.30244185      -0.26377974
H       -3.65577000       1.23436600       0.37136200       1.37921577      -2.93361239       1.56617911
H       -3.36175500      -0.63830200       0.92513200      -0.67025338      -0.20087842       0.98438627
H       -1.78249100       1.17635100      -0.97266100      -0.19568842      -0.20601118       0.10896199
H       -2.35168100      -0.49903200      -1.21119400      -0.68133438      -0.39880405      -0.72376127
H       -0.75317000      -2.50520100      -0.31864000       0.36861507       2.01983856       0.56819811
H        1.88268700      -2.28352500       0.22585000       2.59544858      -2.91149770       0.61934080
H        2.82937800       1.27253100       0.99532500      -0.70208152       5.93230148       3.15714356
H        3.29710900      -0.49094500       1.20659800      -1.16127531       1.02121898       0.77112126
H        3.49215600       0.38322600      -0.40085100      -3.30809566      -0.39518915       2.24653439
H        0.46702000       1.68251200       0.01406200      -0.27207986      -3.66531210       0.26803287
B        0.52802700      -0.84585500       3.56868500       1.12239630       2.73841360       3.35439712
F        0.19305200      -1.70899400       2.56630200      -0.29859519      -1.18736221      -1.19407254
F       -0.19529600       0.44285600       3.35095500       0.98833256      -1.56477107      -0.07407163
F        2.01816600      -0.55544100       3.54275400      -2.77099957      -0.61980706      -0.15268837
F        0.12592100      -1.34246600       4.92749300       0.89506614       0.74922786      -2.69490021
C        5.19584700       0.42762000       0.61208400       8.50908454      -0.19399298       0.17964334
C        6.18157000       0.27631100      -0.66976200      -0.43703830       1.58661849       3.56924859
N        7.53443200      -0.24659600      -0.45538700       0.13735349       5.59117859       1.07670498
C        7.99997600      -1.49312600      -0.28694200      -6.64889751      -4.92422227      -2.19983875
C        9.23714300      -1.49612400       0.03033400       8.30680821       0.51900106       3.13144042
N        9.65971300      -0.10844900       0.16745000       1.33745588      -1.41228734       0.50748717
C       11.04964500       0.37900400       0.53007800      -1.33717063       2.42163355      -8.62621311
C        8.55943300       0.63447600      -0.03004800      -1.27938032       1.85501514      -0.53962546
H        5.95467900       0.78861600       1.36763700      -1.31087956      -0.51835656       0.22502634
H        4.60486500       1.22126200       0.30513300      -0.88848744       2.01260168       0.20429491
H        4.72438700      -0.51119400       0.86209200       1.20670117      -0.06404153       0.17296041
H        6.26356000       1.24919800      -1.13469200       0.19082584       0.67461601      -0.59997918
H        5.73705500      -0.40524800      -1.25763800      -2.31886576      -3.17640000      -3.78142625
H        7.30430100      -2.33803300      -0.44045100       0.46168011       0.17191433       0.00760982
H       10.01848500      -2.23904200       0.21833100      -0.40178686      -0.39572019      -0.12191428
H       11.05885800       1.37316900       0.94623700      -0.27706729       0.93260120       0.44624421
H       11.38317700      -0.31807300       1.13781700       2.85099985      -4.49394329       4.46127367
H       11.64195900       0.34370700      -0.55906300      -1.28774880       0.32658461       3.53160187
H        8.62840700       1.73659400      -0.05492000      -0.68024502      -0.28965058      -0.15209873
B        8.77408200      -0.82517400       3.52515200      -2.42049442       1.11461416      -2.56805668
F        8.38612800      -1.66535500       2.33229600       0.61787166       0.02389869       0.89402848
F        8.04369900       0.38282500       3.27040700      -0.85616453       0.79841270      -0.57724158
F       10.06097300      -0.49019100       3.48551200       3.64792470       0.01885073      -0.48417394
F        8.38200500      -1.29094000       4.71738300      -0.82062635      -1.83811276       1.86274726
48
Properties=species:S:1:pos:R:3:forces:R:3 energy=-41276.3024226156 pbc="F F F"
C       -2.79955400       0.54503500       0.59583000      -2.57046018       5.63138751      -3.86584354
C       -1.92988200       0.59084100      -0.68397900      -2.83693619      -7.77979595       0.24692157
N       -0.59026600       0.14705700      -0.27296400      -3.18880537      -5.45162996      -2.06900368
C       -0.20750600      -1.20998500      -0.25842900       3.98997451      -1.35747576       0.88851550
C        1.19502900      -1.23786700       0.04019700      -8.99208459       4.56614127      -0.99432419
N        1.49075500       0.10210100       0.17296100       9.51431982      -4.98956849       2.46398591
C        2.89669800       0.50901400       0.50625300      -6.45529025       7.85905552      -8.58376130
C        0.50550500       0.82361500      -0.09507600      -3.44261814       6.98455501      -0.26078302
H       -2.30911600       1.03112600       1.36200100       2.04756295       0.39461497       3.07107196
H       -3.52715300       1.38657600       0.33301700       0.08052311      -1.19388683       0.43761530
H       -3.41717800      -0.25691400       0.84624800      -0.54002664      -2.65137386       0.43359234
H       -1.80570300       1.44727800      -1.21161100       0.02788575       4.49160753      -1.79709814
H       -2.42367200      -0.23575500      -1.46016700       1.91257108       2.39007118       2.04342744
H       -0.71187300      -2.15482900      -0.27807500      -1.72688313      -0.30290376      -0.39293049
H        1.77719500      -2.00849500       0.12947700       4.77416999      -5.54681975       0.91682567
H        2.84987900       1.59331100       0.77900200      -0.27454290      -0.82765106       1.11544859
H        3.38670000      -0.07975800       1.10202900       2.00617063      -4.28085249       5.04519346
H        3.47552400       0.67863900      -0.52008600      -3.76927302      -1.95666525       1.77201448
H        0.46652800       1.84635200      -0.03138800       0.25010540       3.63385069       0.18458411
B        0.58866400      -0.56485500       3.48842800      -0.28269018       2.76534355       0.58721144
F        0.23099600      -1.45889500       2.44180300       0.64874305       0.15972633      -0.34575213
F       -0.17390600       0.77858800       3.17374000       1.16051173      -2.52394403       0.37690701
F        1.97691000      -0.17402400       3.55347500      -1.23850453      -0.72130799      -0.76478181
F        0.20287500      -1.10634100       4.73126300      -0.14135758       0.41134765      -0.67059759
C        5.20283200       0.40850300       0.23817500       0.98543638       2.04250614       1.68852497
C        6.08029100       0.23437500      -1.01659200      -3.13528930       2.24009869      -1.03411221
N        7.40718700      -0.12352600      -0.71647200       2.96687080      -4.85544109       0.55334362
C        7.83597200      -1.48857000      -0.56848200       2.26938698       2.63354558       0.24149366
C        9.17964500      -1.35546300      -0.24552900      -1.21084971      -9.55472355       0.12081315
N        9.52321400      -0.09749300      -0.20379400      12.13439601      -1.60569156       2.56822438
C       10.89736500       0.37905800       0.11671800       2.27490654       1.62000523      -1.00376528
C        8.55006800       0.59479100      -0.42751500     -12.35305567      12.01066955      -2.60933554
H        5.75124500       0.82771600       1.12833000       0.45517847      -1.35139222      -0.51448376
H        4.46101100       1.27764900       0.09886800       3.78351850      -1.19224216      -0.04375640
H        4.57634700      -0.49219000       0.47898600       2.89520900       0.52101979      -0.38806093
H        6.12991000       1.21611500      -1.50136400       0.04191671       0.49217238      -0.36221963
H        5.61097700      -0.44277500      -1.77407100       0.49093765      -0.10163772       0.51488412
H        7.32786900      -2.40382800      -0.57184800      -1.78626393      -1.56708472      -0.40034518
H        9.85965800      -2.24147600      -0.19441300      -0.12793907       1.08986648       0.30127621
H       10.97799900       1.41581600       0.59459600      -0.88207624      -1.46436544      -0.30819975
H       11.32566400      -0.39076900       0.75310800       0.32563091      -0.26159976       0.78524089
H       11.55379700       0.44145300      -0.82263700      -1.14546803      -0.26148757       0.82938480
H        8.39190300       1.68456900      -0.34457000       0.84008356      -0.23356181      -0.04023032
B        8.67311300      -0.68516200       3.08697600      -7.05133136      -1.46884576       2.21586213
F        8.29340300      -1.60809700       2.01305000       0.36254576       0.24966673       0.02238571
F        7.91076300       0.51351500       2.91306500       0.39715072      -0.42834276      -0.31019899
F        9.93558300      -0.51285600       3.16522100       5.98362489       0.93710965      -0.23927470
F        8.20873700      -1.31388700       4.42005500       0.50463731       0.81355022      -2.44428669
48
Properties=species:S:1:pos:R:3:forces:R:3 energy=-41273.6714239773 pbc="F F F"
C       -2.72509100       0.50843300       0.43411600      -3.07371915      -0.39101683      -1.06102844
C       -1.81824200       0.24928800      -0.85377200      -3.61678531       5.86455276       1.26086024
N       -0.50140900      -0.06777800      -0.45013300       1.06369250       2.60873460      -0.30404268
C       -0.12576800      -1.31253000      -0.33800500       3.12269935      -8.79282127      -0.61727203
C        1.27516500      -1.34053800      -0.18683000      -2.50547548       1.80133745       0.96173868
N        1.67915400       0.03186700       0.05657900      -0.76552358      -7.35172767      -0.14408312
C        2.93412100       0.49889200       0.37374400       2.68473316      -4.19323503      -3.59390239
C        0.63525400       0.69154600      -0.21847800      -6.64217517       8.47811436      -0.74484962
H       -2.12668400       0.96070300       1.20691700       0.83468696      -0.11806068       0.98396610
H       -3.49780900       1.32292000       0.17929600       0.96792851      -1.45446957       0.10955630
H       -3.30924900      -0.40681100       0.80112300       1.19480731       1.21493478      -0.39042587
H       -1.82435600       1.32008900      -1.25854400       0.51086130      -1.51485271      -0.31675753
H       -2.24059300      -0.40859400      -1.58933700      -0.22694566      -1.15340555      -0.73131907
H       -0.76423600      -2.25447000      -0.57882900       0.98735179       2.13703217       0.61552312
H        1.91488800      -2.11017200       0.02768900       2.21490800      -2.79244075       0.66481096
H        2.95614700       1.44670900       0.80276800      -0.46297835       2.58268862       1.48963132
H        3.46864900      -0.33406400       0.99016000      -2.64713951       2.20728277      -0.31177233
H        3.58475500       0.52249700      -0.70784500      -4.47781081      -0.47131028       2.78430464
H        0.59839200       1.78134400      -0.11892000      -0.25210969       0.10078125      -0.13484178
B        0.71556200      -0.62429100       3.36385100      -4.32667040       0.08223184       1.13410142
F        0.31976300      -1.52311200       2.26684100       0.15069975       0.28214664       0.82187413
F       -0.02517400       0.64525500       3.08942500       1.09122047      -1.55608088       0.31401868
F        2.04927000      -0.45445400       3.31777500       1.67695450       0.24781875       0.26720431
F        0.17660900      -1.14738700       4.72206400       1.41434355       1.02176629      -3.30385055
C        5.26683200       0.37464200       0.22590000      -0.47794334       7.20719025      -0.00222882
C        6.14933600       0.27157300      -0.99248100     -12.80433490       3.93499068      -8.06626318
N        7.32901500      -0.10660000      -0.75429400      15.48153941      -6.76696754       3.30605570
C        7.85182900      -1.47632300      -0.59996800       2.66000166       3.09694719       0.33845644
C        9.24670000      -1.41917100      -0.38076500     -10.69809917       5.55504150      -1.54158427
N        9.47740000      -0.09505500      -0.24720200       7.71008165       0.21859862       1.48800327
C       10.84506100       0.43533800       0.06574600       4.25256850      -5.63667926      -0.94945227
C        8.44803500       0.65510800      -0.39606300      -5.56335348       8.14576664      -1.12288858
H        5.81060800       0.89881600       1.05126500       0.05150209      -1.38749559       0.06092537
H        4.36792300       1.24309000      -0.06020900       6.99296420      -2.08500300       1.30725038
H        4.60078900      -0.42461800       0.44571400       2.62868778      -1.65885258       0.26328424
H        6.19067800       1.32453300      -1.64742500      -0.30235889      -2.79347794       2.05353878
H        5.71948300      -0.53862200      -1.79709800       0.45581518       2.21754196       2.02010267
H        7.33342700      -2.32448500      -0.83869600      -2.44900864      -2.88962429      -0.79233170
H        9.82393700      -2.14441100      -0.27878200       7.07843605      -7.92269361       1.29497082
H       10.94554200       1.40640600       0.46706900      -0.68422447       2.00217905       1.00482257
H       11.36024600      -0.40284400       0.79943000      -1.66515312       2.74769568      -1.65005647
H       11.51369800       0.36435500      -0.90065000      -1.53527247       0.33954467       1.61453031
H        8.46696000       1.84773500      -0.49952400       0.00550423      -3.25416721       0.41216987
B        8.68907700      -0.69296500       3.05541900      -5.38026541      -1.42858998       1.59845025
F        8.24085900      -1.64963400       1.97917500       0.78075319       0.63107182       1.20273491
F        7.91229700       0.48774700       2.76602400       1.00075399      -0.74295879       0.36651421
F       10.00560400      -0.53739400       3.09091700       2.20013088       0.25969373      -0.10976886
F        8.16708300      -1.27995500       4.48919300       1.34810885       1.35366391      -3.87937272
48
Properties=species:S:1:pos:R:3:forces:R:3 energy=-41278.4217079787 pbc="F F F"
C       -2.68912200       0.41876400       0.19701700      -5.11924626       3.35853992       2.56697970
C       -1.88116300       0.32558200      -1.00790100       1.63153998       2.19568349      -1.12256834
N       -0.51422600      -0.10879100      -0.71615700       1.65288189       4.39730958       0.24193474
C       -0.06398900      -1.36339100      -0.60986400      -0.51896348      -3.19036779      -0.36005688
C        1.24386000      -1.31723200      -0.31403300      -0.26519876      -1.42324573       0.94848214
N        1.63977500      -0.05354700      -0.11161500      -3.35614906       3.66724529      -1.63215477
C        2.92550300       0.47413200       0.01526400      -1.75476190      -1.07698183       6.66309681
C        0.58259500       0.78454300      -0.40351700      -3.15009139      -0.10557334      -0.43128290
H       -2.14109900       0.90024800       1.04354000      -0.11499620      -0.92647207      -0.21529245
H       -3.51672600       1.22512500      -0.06039200       1.58352063      -1.74342225       0.63099514
H       -3.29589100      -0.46179900       0.46609900       0.81425721      -0.25839598       0.30596827
H       -1.83291600       1.33942800      -1.45262300       0.44391093      -0.17157789      -0.17475434
H       -2.25854000      -0.31503000      -1.74022500      -1.21984934      -1.88854172      -1.95896392
H       -0.62833100      -2.27047600      -0.74828600      -0.77579763      -0.38991947      -0.24070373
H        1.92199200      -2.06209600      -0.18362700       2.48836042      -3.25781083       0.50505731
H        2.92570700       1.45381400       0.56095900      -0.85536363      -0.62861196      -0.50156834
H        3.38907100      -0.27289600       0.77308700      -2.68745697       1.81807871      -1.35762692
H        3.49143900       0.53270500      -0.82750900       0.60297268      -0.50067918      -4.17373057
H        0.51680100       1.89487100      -0.37740200       0.16718821      -0.77632597       0.06174249
B        0.67826500      -0.58883700       3.14315900       1.33211765      -1.05045080      -1.51378700
F        0.34322800      -1.61961500       2.09367700       0.21351241       0.44216508      -0.46711023
F        0.00129500       0.57283000       2.85722100      -0.36877584       1.06121135      -0.53432311
F        2.10099300      -0.42778800       3.08352900      -0.94173163       0.04973636       0.04387006
F        0.20885600      -1.18518300       4.28072800      -0.14571032      -0.46102796       1.51969811
C        5.16918900       0.45048500       0.38952800       2.54965633       4.33960906      -0.30479601
C        6.01691000       0.34583000      -0.88294100       0.99638974       0.59629527       0.01118641
N        7.39845000      -0.06465300      -0.58978500      -2.07926770      -5.43406259      -0.66248846
C        7.85502800      -1.42950500      -0.47792300       0.74569367       2.56243612       0.56224425
C        9.20495900      -1.32856800      -0.09363900      -4.84957805     -12.63089746      -0.97131961
N        9.51038200      -0.13224900      -0.13338100       5.53815433      14.02126996       1.20534763
C       10.91898700       0.45602500       0.22781500      -2.83587737      -2.53147233      -2.71719262
C        8.40902700       0.73962200      -0.37640500       4.01574002       1.26657859       0.95082495
H        5.80176100       1.06663200       1.17309000      -1.40605799      -2.42615289      -0.81670932
H        4.41847700       1.23527100      -0.02362800       3.60283189      -1.04566217       2.24740723
H        4.55749700      -0.48259300       0.54684300       3.90102957       0.83031419       0.91333200
H        6.21465800       1.32902500      -1.34812400      -0.88722681       0.10957470      -0.26740630
H        5.60787000      -0.37644200      -1.58361000      -0.31821958      -0.31924532      -0.77821780
H        7.24389500      -2.26364300      -0.64072900      -1.42350293      -1.64543395      -0.31142268
H        9.82486900      -2.24766000      -0.14713600       0.38591181       0.83539697       0.67067888
H       10.83936700       1.43042800       0.59684100      -0.28183086       2.13696333       1.71535964
H       11.35103100      -0.33085300       0.78277700       1.18866074      -0.83528842       1.96434694
H       11.39467300       0.48911900      -0.72665900       1.16532889       0.25454130      -1.46900688
H        8.41578800       1.80942400      -0.24644100       0.05546651       0.68330328       0.01081660
B        8.61107200      -0.67762200       3.22457500      -1.32850709       0.79647950       3.14415686
F        8.20660800      -1.56772000       2.18712000       0.72798808      -0.06634792      -0.14372378
F        7.90237900       0.57417900       3.05043900       0.43793329      -1.13924076      -0.04669750
F        9.99267000      -0.38957400       3.30652400      -0.68532641      -0.74705271      -0.43895507
F        8.13566400      -1.30835900       4.60077700       1.12366440       1.24880066      -3.28604700
48
Properties=species:S:1:pos:R:3:forces:R:3 energy=-41277.8418931467 pbc="F F F"
C       -2.63444400       0.13255600       0.33081500      -5.42246912       5.94725914       6.06900815
C       -1.81125400       0.04291000      -0.79167200       2.98875248       0.53938814      -6.83843663
N       -0.42508200      -0.38103400      -0.49558200      -3.92192467       0.33759021      -0.73199688
C       -0.07116700      -1.66615400      -0.44066900       2.35635605      -4.67690136       0.33186609
C        1.30617500      -1.61241100      -0.11509800      -2.92159805      -8.20764245       0.59276886
N        1.68735800      -0.39321700      -0.03367400       1.43103562       8.10205048       1.54080804
C        3.02115700       0.15132000       0.37963500      -1.88506129      -5.85630531      -8.99584167
C        0.57558000       0.43292500      -0.21514100       2.59719397      -0.18075983       0.59661824
H       -2.11469300       0.75118400       1.18247200      -0.64666694      -2.16216300      -1.19380005
H       -3.45788100       0.93050500       0.09591300       1.28231922      -1.49251889      -0.05859314
H       -3.26332700      -0.67510200       0.68175500       0.65381894      -1.25051608       0.37527413
H       -1.67191100       1.02116500      -1.33711100      -0.26817326      -0.38717870       0.72993204
H       -2.10488600      -0.63755500      -1.62120500      -0.52705030      -0.16807269       0.47597160
H       -0.65260800      -2.62678000      -0.53749400       0.09268334       1.58506789      -0.08288995
H        1.96035200      -2.46041400      -0.00481800       0.61712560      -0.56106480       0.10949948
H        3.02561300       1.09579800       0.65397500      -1.06190780       5.82734088       2.95113376
H        3.50056300      -0.59296100       0.95381000      -0.47072191      -0.85407674       1.59849344
H        3.53655000       0.21316200      -0.73659900      -1.50970807      -0.69478556       3.21640413
H        0.58398800       1.46483600      -0.18589700      -0.11182320       2.98316935       0.05092459
B        0.74048300      -0.93207600       3.35694100      -1.22817970      -0.94649436      -0.89838057
F        0.51530100      -1.96604000       2.18705200      -0.02790953       1.07913740       0.76248425
F       -0.02330700       0.23557600       3.00222800       0.81583102      -1.00371331       0.14284663
F        2.10955100      -0.77910700       3.32634200       0.71330078       0.69606012      -0.04112693
F        0.31506900      -1.48336800       4.59559500      -0.00326278       0.28468040      -1.22935393
C        5.40294500       0.38147100       0.50704300      -1.09633839       2.07001593      -3.22746788
C        6.26718000       0.14548500      -0.83634400      -5.41439734       9.82607911       1.75655495
N        7.51961300      -0.17487500      -0.49587800       6.10445420       2.25064175       0.75493712
C        7.99565400      -1.35352100      -0.38833300       3.24817911     -15.31271448      -0.28410587
C        9.40900800      -1.48237000      -0.16254800      -4.49878863       2.38854923      -0.36043666
N        9.76427000      -0.12888900      -0.09960900       0.48664495      -1.31729428       0.88932576
C       11.09082500       0.35758600       0.28881500       3.20464142      -2.85312465      -1.25633361
C        8.63838100       0.60005500      -0.24714300      -0.63658752       8.87978088      -0.13044773
H        5.96222900       0.87975200       1.28568100       0.90966359      -0.42416301       0.84862846
H        4.58848000       1.16285900       0.16563500       3.38050456      -1.46435605       1.20047257
H        4.83205100      -0.52390600       0.73558300       2.45077694       0.15916263       0.77166890
H        6.39139500       1.30571900      -1.20132300      -0.72207862      -3.33172135       0.09118695
H        5.79387600      -0.44135100      -1.55440300      -1.04166663      -1.92798993      -2.01163002
H        7.45448400      -2.39688800      -0.62833700       0.58313989       3.26237079       0.76447045
H       10.06048700      -2.28997900       0.03292100       1.01603389      -1.42603165       0.21318824
H       11.02661800       1.29837400       0.74973200      -0.29290693       2.39856696       0.93006316
H       11.57417600      -0.37882300       1.07674000      -1.09019617       1.34244636      -1.74472925
H       11.66816900       0.41876300      -0.72302000      -0.33239321      -0.05278581       2.08583414
H        8.62300200       1.80639600      -0.26686500       0.01490236      -3.53148753       0.07650929
B        8.73389700      -0.74906000       3.32033500       2.17392531      -0.64819857       2.45891978
F        8.40682600      -1.68060600       2.31570300      -0.08956318      -0.59316632      -0.73250205
F        8.04448500       0.42365500       3.13350000      -0.32079042       1.10337189      -0.47957661
F       10.22643100      -0.53408100       3.26074500      -2.36271447      -0.26498295      -0.01174645
F        8.35253500      -1.29493400       4.65875600       0.78218983       0.51257853      -2.08627559
48
Properties=species:S:1:pos:R:3:forces:R:3 energy=-41274.1815388692 pbc="F F F"
C       -2.88187400       0.44175000       0.63329600       0.93659430       4.46056290      -1.31884685
C       -1.98826400       0.14901800      -0.64738400      -0.65808923      11.52389005       4.80851207
N       -0.65772000      -0.15621700      -0.28782600       1.21132854       3.21541208      -1.04815400
C       -0.21272400      -1.39437100      -0.24841500      -2.69520083      -2.40051580      -0.42294160
C        1.00911700      -1.42931700       0.08630800       8.48025838      -1.80384807       2.49262063
N        1.43663900      -0.07670200       0.21670700       6.96352615      -8.64966083       2.08102803
C        2.83491500       0.23296700       0.41374900      -5.80915884       1.14089488       3.19657056
C        0.50209200       0.62897800      -0.15942600      -9.62938567      11.24128640      -1.50134468
H       -2.25181700       0.87945400       1.46496600      -0.55220317      -0.78793915      -0.76189059
H       -3.65422300       1.23786800       0.33998400       1.18446812      -1.04868632       0.38419684
H       -3.43488500      -0.35905100       0.92269500      -1.86118040      -3.67357005       1.63799599
H       -2.00787000       1.29274200      -1.05508400       0.63967311      -3.30564107       0.12574462
H       -2.37393700      -0.43410200      -1.31863900      -2.97254894      -5.08328985      -5.19134535
H       -0.76549300      -2.20652500      -0.41347800      -3.42939039      -4.08382283      -0.93977098
H        1.75921400      -2.23759300       0.18219100      -0.60730436       0.29202947       0.13347939
H        2.75055100       1.24449600       0.89436300      -0.12155920      -0.65850715       0.26797398
H        3.31382900      -0.40317500       1.24229700      -3.07944972       0.02114780      -0.96448159
H        3.38370500       0.48833400      -0.47799000      -2.97171997      -2.86651968      -1.82214188
H        0.45740000       1.77049000       0.02582900      -0.05709538      -1.96173569      -0.61822301
B        0.51762300      -0.69302500       3.52124200       1.09501461       0.44345945       2.14870953
F        0.16626900      -1.61583500       2.54403500      -0.36199174      -0.77067713      -1.09319196
F       -0.20000400       0.54358500       3.32734000       0.78072454      -1.21145676       0.34832861
F        1.98756100      -0.47319600       3.39876500      -2.26999557      -0.13468602       0.34736309
F        0.14433300      -1.37389900       4.85205000       0.91110452       1.71726110      -2.52143071
C        4.90829700       0.64714500       0.25532200      -0.87739577       2.99630077       4.68282530
C        5.70486200       0.44866600      -0.88846400       6.16178094       4.88437960       1.82410996
N        7.10909000       0.02551100      -0.45197400      -0.51296003       3.78909214      -1.14044884
C        7.58783100      -1.20457300      -0.47414400      -0.25869014      -9.15021566      -0.44140389
C        8.97370500      -1.24830100      -0.31588800      -4.39309621       2.58187019      -0.29683931
N        9.28002900       0.10006700      -0.15584200       4.84861858      -2.45999329       1.34506772
C       10.61805100       0.51931300       0.27411600       2.44237686      -1.16374278      -4.72949610
C        8.24355200       0.85662800      -0.30777800      -5.45187325       1.88139443      -0.18027186
H        5.48285600       1.05641000       1.07182000       0.97302000       0.55917213       0.55686093
H        4.02090400       1.39019000       0.05939400       6.02713492       0.39111892       0.79207090
H        4.38900100      -0.22660900       0.67400500       4.42272514       0.66409476      -0.96749446
H        5.81954300       1.42054100      -1.36678000       0.55723426       0.60939356      -0.56433384
H        5.49082100      -0.17102100      -1.59955600      -2.58880288      -5.49732617      -5.44508743
H        6.96702700      -2.21156500      -0.61517200       1.13685660       2.94218649       0.35560522
H        9.52784800      -2.06646300      -0.07767600       2.73671000      -2.89631656       0.77708854
H       10.67299500       1.53264100       0.51549600      -0.40037691       2.43024880       2.14107483
H       11.11888100      -0.24571900       0.86902000      -0.16908462       0.08838445       1.00679342
H       11.17699800       0.57784300      -0.73018300      -0.10349454      -0.60512359       1.15845061
H        8.13773300       1.89842400      -0.28704700       0.25012962       2.28896998       0.19192990
B        8.28241900      -0.63052600       3.25771400       0.99063336       0.84046037      -0.36849473
F        8.03513500      -1.47058800       2.05563400      -0.26382304      -0.14834192       0.87682817
F        7.64711100       0.60736400       3.00125200      -0.66400864       0.14500621      -0.16056057
F        9.68447200      -0.36402800       3.21719900       0.06113488      -0.42416019       0.08152374
F        7.90763000      -1.12738900       4.52934900      -0.06541134      -0.36015924      -1.25879948
48
Properties=species:S:1:pos:R:3:forces:R:3 energy=-41274.9803650906 pbc="F F F"
C       -2.79536100       0.57139300       0.40136100     -10.03534475       2.68319755      13.58618452
C       -1.95401900       0.38253800      -0.58845700       2.97924363       2.70025544     -12.33110422
N       -0.66119200      -0.05882900      -0.31530400       6.39629194       1.29084817       1.15747421
C       -0.09577800      -1.30233600      -0.32840200       0.55849416      -1.76589099       0.03500470
C        1.22082300      -1.36319200      -0.08666600      -2.78263659       9.18973941      -0.37091155
N        1.56570100       0.12893600       0.09040500       1.64466676      -5.50334929       1.41721000
C        2.92219600       0.60255200       0.52390200      -2.50287239      -6.36755213      -7.45809140
C        0.46751700       0.81517000      -0.02821200      -4.87317999      -0.52415222      -0.40774124
H       -2.30111200       1.08987200       1.29970700      -0.23920350      -1.19390855      -0.96670552
H       -3.57437100       1.36251600       0.21483700       0.42512375      -0.89905545      -0.67448022
H       -3.43033800      -0.29939500       0.86482600       1.82211032       1.27960473      -1.21428182
H       -1.84676200       1.43362100      -1.14269500       0.29474483      -2.18688262       1.02714248
H       -2.39407600      -0.21608100      -1.39501500       0.09185899      -0.75192066      -0.39062973
H       -0.59312200      -2.19425000      -0.45797800      -2.50001022      -2.55252672      -0.57481119
H        1.91160900      -2.02162600       0.12085200       4.56488036      -4.91348808       1.19988580
H        2.86347100       1.56939300       0.81562300      -0.08509979       4.37888223       1.89851032
H        3.36341200      -0.21432700       1.13622900      -1.27402953       1.36668289       0.58726011
H        3.44138300       0.49137000      -0.64598600      -3.35668092       0.45519873       3.79026774
H        0.44168600       1.85057700      -0.10943600      -0.43818868       2.90128991       0.02258763
B        0.54395900      -0.59326200       3.40512500       2.34895642       2.00833262       4.05852162
F        0.24723400      -1.41025200       2.40631700      -0.61770081      -2.50109716      -2.56637360
F       -0.09710100       0.65926700       3.18369400      -0.08408875      -0.06658415       0.30591441
F        2.03551200      -0.28486700       3.41345700      -2.07438140      -0.57656587      -0.15803503
F        0.20889900      -1.20479900       4.73004300       0.48182831       1.23661585      -2.23835988
C        5.19048700       0.29819900       0.32149700       1.04938539       4.71843774      -1.32488441
C        5.99098200       0.16154200      -0.95833200       1.95789648       1.10436657      -1.27646938
N        7.38120900      -0.26939700      -0.65474700       0.69420101       5.41586933      -0.27903923
C        7.84105900      -1.47312000      -0.58621000       2.66340027      -9.81983856       0.06745224
C        9.19305400      -1.55884500      -0.24460900      -8.77349755       8.63499143      -0.80051510
N        9.50391500      -0.17094500      -0.06657700       4.45707178      -6.66925432       0.24657896
C       10.87332200       0.15931600       0.10185400       1.35549961       7.22903642       4.22291052
C        8.52023000       0.56674600      -0.39617000      -7.05795472       4.52859753      -1.31001143
H        5.78770800       0.78579600       1.12220900       0.16381288      -1.27140868       0.21397242
H        4.42875400       1.17381200      -0.00862300       4.63805143      -2.33734314       1.74009766
H        4.62635700      -0.60549100       0.49567500       1.29968738      -0.52083513       0.63082704
H        6.20734000       1.16400600      -1.42031000      -0.83910165      -0.53669207      -0.02840657
H        5.62296900      -0.55931100      -1.72473300      -0.30043637       0.33790700       0.30685249
H        7.31077300      -2.42460200      -0.80994800      -0.47734868       0.92350458       0.09745508
H        9.82467600      -2.25038600      -0.15238400       6.47870793      -7.26099126       1.09701021
H       10.75588200       1.36006900       0.60182200       1.12686903      -4.38432396      -1.30174586
H       11.34271500      -0.51429700       0.85125000       0.03978199       0.20322034      -0.37144282
H       11.40679100       0.36398200      -0.81234700       0.69541972      -0.61110676      -1.23155125
H        8.47916700       1.64659100      -0.39975500      -0.00964015       0.61166540       0.10404353
B        8.61796100      -0.87831100       3.07343300      -0.45990243       2.55138216       5.10598839
F        8.26225900      -1.72173500       2.10793100      -0.76264889      -2.18553223      -2.48183423
F        7.88475600       0.38937200       2.95542900       0.47785509      -1.17244911      -0.21148615
F        9.97912400      -0.61535100       3.15394300       0.71359454       0.07149630      -0.63949102
F        8.27038300      -1.46688700       4.45514700       0.12617296       0.77280810      -2.31118381
48
Properties=species:S:1:pos:R:3:forces:R:3 energy=-41275.8199006147 pbc="F F F"
C       -3.09981400       0.46783700       0.48450100       5.63412634       1.85009294      -2.36993557
C       -2.03768300       0.28227300      -0.77215800      -5.79023808      -1.75375621       0.05310601
N       -0.69460100      -0.06590600      -0.42134400      -7.45335044      -5.15569199      -1.90529189
C       -0.39564900      -1.41828400      -0.38204200       4.15929599       1.51454902       1.02952874
C        0.91457400      -1.38663200       0.01282400       0.57493014       0.85533156       0.17317730
N        1.42677900      -0.03815200       0.01411700      -5.85962052      -2.06659392       0.00070575
C        2.72853200       0.40166200       0.27054600      -0.50503990      -2.45269404      -0.27134489
C        0.26321400       0.71606300      -0.15791800       6.30630328       5.02113665       1.48446887
H       -2.45951400       0.92362900       1.23905500      -0.03444720      -0.51998414       1.09177252
H       -3.74746000       1.23439400       0.20523500      -2.12977793       1.55645763      -0.99192307
H       -3.56200300      -0.40597100       0.72329900      -1.74986335      -3.40302967       1.35810881
H       -1.99402300       1.22518800      -1.17054100       0.22810417       3.73241257      -1.70638149
H       -2.50696000      -0.38067900      -1.62361200       1.38175219       0.80009507       1.95274448
H       -0.94939500      -2.27681400      -0.52794900      -2.37830110      -1.91803368      -0.55695214
H        1.59251600      -2.17393000       0.01319700       1.87551565      -2.20039243       0.40300314
H        2.76923900       1.37468100       0.76001800      -0.95950698       0.24976095       0.57707119
H        3.25793000      -0.42694500       0.92957000      -4.26201418       2.10601049      -0.92494181
H        3.27683200       0.46158400      -0.72392100      -1.88548302      -0.64884151       0.64448910
H        0.23629800       1.79415700      -0.23907500      -0.06509083       0.63695194       0.07123716
B        0.39883500      -0.81422900       3.30266000       2.54220112       3.95013438       3.85891711
F        0.08392500      -1.59312200       2.22743800      -0.00170183      -1.86026579      -1.13621166
F       -0.19999500       0.48482700       3.06398100      -0.09267542      -0.51544832      -0.14626665
F        1.91103700      -0.46676600       3.32401700      -2.68555087      -1.30133402      -0.38927803
F        0.01436200      -1.19882800       4.68554800       0.58653416      -0.13626447      -3.01191139
C        4.90341900       0.49832700       0.42529700       5.10310172       4.57997655       1.73584823
C        5.77761100       0.33613200      -0.76615600       2.12308839       2.81473174      -3.65353062
N        7.23511300      -0.01506300      -0.48644400      -4.57545029      -1.28969207      -1.42768981
C        7.57984300      -1.32054600      -0.42523800       3.92038686      -4.89999276       0.56484256
C        8.97359900      -1.33990500      -0.14125800      -4.66181772       1.40345273       0.17354308
N        9.28605200       0.03512100       0.00518900      18.49025690     -12.50082481       4.81063743
C       10.75332300       0.43150800       0.33393700      -3.16534950       4.12331792      -3.91494190
C        8.37014900       0.67446900      -0.31338700     -14.73426631      17.35573364      -3.56365258
H        5.59348300       0.90848000       1.25040600      -1.30128680      -0.88588560      -0.61826215
H        4.14536600       1.29938200       0.11602900       4.14820764      -0.79630141       1.55645786
H        4.36397700      -0.37939800       0.66545200       3.09288022      -0.93789926       0.54444886
H        5.87887600       1.32407300      -1.34187600      -0.23511030      -0.87818104       0.92983585
H        5.38753300      -0.33579800      -1.55514100       0.28605202      -0.64850223       0.32851806
H        7.01728400      -2.26511300      -0.56704200      -0.48238874       0.99479649      -0.01412177
H        9.66187000      -2.07945500       0.02520600       2.31931789      -2.62943368       0.60523699
H       10.66204500       1.44168300       0.77609500       0.37224880      -0.31725054       0.53431669
H       11.21638400      -0.28204700       0.89858000       1.48130163      -2.87995582       2.70203953
H       11.24846900       0.55645900      -0.66041800       0.00385678      -0.24002747       0.38431454
H        8.30859400       1.79305600      -0.27516400       0.19978957      -0.80307985      -0.12754719
B        8.36461700      -0.73462100       3.33265900       1.18401502       3.38059229      -0.75570690
F        8.08775800      -1.66053900       2.21006300       0.61056102       1.12836141       1.14308513
F        7.60464700       0.59048000       3.08788800       1.36574793      -2.57811408      -0.33092818
F        9.84323800      -0.35503100       3.38442000      -2.90707936      -1.05313794      -0.72596263
F        7.96851200      -1.17223000       4.57717700      -0.09616246      -0.75370522      -0.16644807
48
Properties=species:S:1:pos:R:3:forces:R:3 energy=-41276.5548693096 pbc="F F F"
C       -2.59439000       0.13221100       0.61821500      -4.29897237       7.96774688       4.18265417
C       -1.73740900       0.11122300      -0.54878300      -0.76480939      -2.87619669      -4.69429125
N       -0.38430000      -0.35760700      -0.29474200       1.38504857       6.95174035       0.03050358
C        0.03525400      -1.57317600      -0.20557100       6.37958010      -4.05121486       1.41423262
C        1.43747200      -1.61497400       0.09831000      -7.52665972       3.38736203      -1.23418486
N        1.83972600      -0.34912500       0.20430400      -6.31721287       6.10312103      -1.55302655
C        3.08337200       0.21349200       0.45644800       2.29704378      -4.48073337       2.99308052
C        0.68337300       0.59423900      -0.09940600       1.72366610     -15.73376223       0.19228490
H       -2.08799100       0.65956100       1.52012400      -0.40329225      -1.33135072      -1.38546664
H       -3.40712000       1.05953000       0.32572900       2.22575303      -3.25975330       0.96503895
H       -3.23291200      -0.63880800       1.02109200       0.21277006      -1.52142656      -0.48562167
H       -1.57518000       1.07363300      -1.05574400      -0.56280142       0.34065819       0.06401410
H       -2.19157900      -0.65571900      -1.30187600       0.82188829       1.54313500       0.77079546
H       -0.46980700      -2.43697700      -0.37543600      -2.78383546      -3.17654690      -0.65383070
H        2.06031400      -2.33892800       0.25031200       4.62100582      -6.09507242       1.11276952
H        3.05943900       1.14754800       0.94582700      -0.65286272       1.75745949       1.18488117
H        3.63338100      -0.59252200       1.20150100      -2.73479776       2.58554267      -1.74678031
H        3.68368200       0.30716100      -0.42342700      -0.63776313      -0.49222163      -1.46985673
H        0.66542500       1.52155200      -0.04525100      -0.29194330      10.94029371       0.77417211
B        0.84335100      -0.89906000       3.49225800      -0.40291427       2.86089410       2.32133905
F        0.37368400      -1.70258000       2.49763600      -0.22665861      -1.51916770      -1.82143810
F        0.13607900       0.41687000       3.31732200       0.44328876      -0.96183450      -0.08776122
F        2.20240000      -0.63609900       3.52059100       0.98899393      -0.01451814      -1.10691611
F        0.53430400      -1.38925800       4.77939800      -0.71703692      -0.33800358       0.00733881
C        5.45820900       0.42318000       0.52658900      -2.99175981       3.72305660      -3.02945065
C        6.28454500       0.33724500      -0.68254900       0.72143503      -1.34467425      -6.77987877
N        7.68801700      -0.09743700      -0.43887000      -3.13822534      -1.45143520      -0.69475393
C        8.07839400      -1.40932100      -0.38787900       7.80610409       2.68139782       1.11514767
C        9.50882200      -1.36766200      -0.10150400      -8.17377468       3.82053604      -1.02417195
N        9.79875500      -0.00893900       0.07736400       4.51305122      -4.39196105       0.33113230
C       11.18999700       0.41758700       0.37861800      -0.78192908       3.77969918      -4.64401398
C        8.70901300       0.68763200      -0.13943300       0.03473245       4.82908275       0.39400090
H        6.06354300       0.87399900       1.23923900       1.32563053       0.64811596       3.03922761
H        4.67077200       1.34555500       0.09835200       3.72353539      -3.00155343       2.63471671
H        4.87756600      -0.49741700       0.71472400       2.53460184       0.85274322       0.54379490
H        6.38633500       1.29369100      -1.26655100      -0.00789061      -0.14971634       0.88468738
H        5.89969700      -0.39522700      -1.57771300       0.69684513       1.53400876       2.79054188
H        7.56052200      -2.25320000      -0.46152300      -3.61901889      -4.34956671      -0.66804732
H       10.04095600      -2.16303400       0.11279700       4.28885327      -4.92093197       1.38982052
H       11.07690100       1.42739600       0.78258100       0.66386103       0.25504950       0.46792081
H       11.72087800      -0.23798100       0.93460700       1.52594123      -3.14381536       3.78626879
H       11.84114100       0.42232900      -0.56973100      -1.35578470       0.55652914       0.66744811
H        8.79801300       1.75105200      -0.14565000      -0.71303343       1.42279334      -0.06593663
B        8.84285800      -0.64580700       3.38675500      -0.06060563      -0.48272858       1.48647526
F        8.57390800      -1.58800600       2.29621800      -0.45232865       0.26278902       0.09909142
F        8.20172800       0.59594000       3.17333800      -0.22532017      -0.31632793      -0.45238909
F       10.23072700      -0.48173700       3.36184400       0.54659572       0.17165286       0.08997964
F        8.42086500      -1.17930700       4.69964900       0.37467352       0.41824644      -2.12390443
48
Properties=species:S:1:pos:R:3:forces:R:3 energy=-41275.0141242939 pbc="F F F"
C       -2.76930700       0.66304000       0.66608500      -1.17855895       1.22220983       5.63029710
C       -1.92808100       0.42176600      -0.47250300      -1.00074201       5.87087638      -6.48210656
N       -0.57158200       0.23382400      -0.26201100       0.43120231     -10.48956157       0.76917977
C       -0.18284400      -1.17197100      -0.05723700       3.03322432      -0.01111426      -0.39626607
C        1.23688200      -1.15061500       0.07731100      -6.01109988      -7.45081718      -0.37981362
N        1.58950300       0.06537000       0.18053400       3.63564714       6.12128305       1.04439957
C        2.96663900       0.50133000       0.51554300      -5.30980171       4.32334419       4.11379508
C        0.51314000       0.84205700       0.06360000       2.21345715      13.20712618       0.76978067
H       -2.16608200       1.15079200       1.55133700      -1.04587050      -1.68653407      -1.61009717
H       -3.47881300       1.44216000       0.44100600      -1.01633245       0.36870813      -0.46950479
H       -3.31196600      -0.23852300       0.95828400      -0.04838360      -0.14312619       0.69707187
H       -1.81325700       1.45684600      -0.98707800      -1.11120878      -1.17672889       0.20782977
H       -2.30655500      -0.21861500      -1.30600000       0.15141245      -0.34395980       0.81400392
H       -0.74018300      -2.05889300      -0.26804800      -1.28280681      -0.52865447      -0.29313897
H        1.87366200      -1.95454400       0.28267800       1.41652591      -1.82297181       0.23732138
H        2.85694500       1.66100700       0.99324200       0.20478360      -3.84140459      -1.44899299
H        3.40713400      -0.14913900       1.30665600      -2.08582188       0.36217817      -0.46005213
H        3.51625600       0.59114200      -0.35986800      -0.06535319      -0.77990424      -3.03788321
H        0.52404800       2.07824000       0.06133300       0.39298571      -4.04877309       0.10939716
B        0.53529200      -0.47264700       3.70415400       4.15597145      -0.08073644      -3.26125237
F        0.39169700      -1.31722000       2.48532600      -0.75395095      -0.53203857       0.30199485
F       -0.00865900       0.71382800       3.37966500      -1.97445685       2.21887152      -0.07563002
F        1.99911800      -0.27868900       3.58812000      -0.00478197      -0.11284258       0.17939734
F        0.29564300      -0.99557300       4.89639300      -1.41728270      -1.35482975       1.97745727
C        5.22600200       0.30322800       0.67679600       4.97389464       8.06936516      -0.40374567
C        6.21967100       0.21618600      -0.42029100      -4.45161264      -3.13738712      -7.06265382
N        7.48960600      -0.39405100      -0.26502000       4.83802882      10.34313557       2.22461852
C        8.01088600      -1.55546200      -0.14020300       3.20933907      -5.92117871       0.99073778
C        9.37556400      -1.45389100       0.20174700      -2.45729114     -11.41737778      -0.69886669
N        9.66848800      -0.22547600       0.31768000       9.83166095       3.72729096       1.76022565
C       11.10057200       0.29667300       0.64899000      -2.28091527      -0.50418404      -2.27351994
C        8.65824300       0.48721600       0.11255900     -10.14358951       9.12535261      -2.42988181
H        5.86368900       0.64237600       1.43834500       0.62913312       0.67532947       2.89382895
H        4.47302000       1.13089600       0.46255800       4.35153779      -0.70527252       1.01841016
H        4.73145600      -0.48598100       0.94572500      -1.75445214      -6.20595115       1.41688119
H        6.26177300       1.17502500      -1.01393700       0.61231330      -0.66870754       0.67230710
H        5.75934200      -0.60337500      -1.17135600       0.58023331       2.28065707       0.99445362
H        7.34603600      -2.34418700      -0.24256700      -1.08437131      -2.99985756      -0.29365004
H       10.02798400      -2.33555800       0.34020000       0.01981374       0.70654724       0.08952938
H       10.95784800       1.27798000       1.06703300       0.28659589       0.84357541       0.90529243
H       11.44814600      -0.49537200       1.25005800       1.17559237      -1.03389058       2.19487232
H       11.69001700       0.30869000      -0.27876400      -0.02420893       0.24541111      -0.39614059
H        8.59829500       1.65888700       0.02635700       0.22036990      -2.80340614       0.29525915
B        8.68446900      -0.81791000       3.71726000       2.11665107       1.17358062      -2.79018701
F        8.38377900      -1.67750400       2.59938700      -0.51548326      -0.59481699      -0.65144894
F        8.08688300       0.40905400       3.51899700      -1.07790829       1.35473215      -0.45425205
F       10.09827500      -0.62271100       3.59246600       0.92986255       0.10439795      -0.24221173
F        8.42704600      -1.33255800       4.89688200      -1.28075612      -1.96331611       3.30351784
48
Properties=species:S:1:pos:R:3:forces:R:3 energy=-41267.4540179068 pbc="F F F"
C       -2.65431800       0.59826400       0.75919400       3.79489623      -0.09996996       1.06801771
C       -1.63598700       0.50170300      -0.43215900      -5.57432053      -4.33716638      -2.11027634
N       -0.34284700      -0.02470300      -0.06869700      -2.52378475      -2.12264861      -0.69406415
C        0.06231200      -1.34051000       0.00880500       4.87860492      -0.90153634       0.26568197
C        1.46320700      -1.39294800       0.19786800      -4.58817597       7.01662498      -0.31923257
N        1.90906400       0.02766300       0.32682500     -10.61855715      -3.58172317      -0.45707291
C        3.16289200       0.50264900       0.70808800     -11.97787483      -4.54103868      -2.21419424
C        0.68271000       0.73008900       0.14707600       7.92870789       7.31820697       2.32203729
H       -1.97573000       1.02321100       1.54189100      -0.95383862      -0.78923941       0.55459984
H       -3.30737400       1.38535100       0.53982200      -2.19300807       1.33994124      -0.64272860
H       -3.11996300      -0.36188400       1.02604900       0.05727394       0.27612812       0.09958379
H       -1.58961200       1.44922600      -0.92446200       0.68437768       1.30360307      -0.77391697
H       -2.13572100      -0.32155200      -1.17319700       1.62526310       2.42626407       1.40285220
H       -0.48771600      -2.19505400      -0.15618800      -2.49360598      -2.29698553      -0.51680322
H        2.17187400      -2.03527800       0.45014200       3.64813963      -4.74102964       1.17735709
H        3.09118100       1.45328500       1.10595700      -0.57075124       3.04409763       1.65439979
H        3.61564400      -0.31959800       1.31709100      -5.03950994       2.61165844       2.31204439
H        3.70215100       0.50602200      -0.31320300      -8.94669981      -2.76274621      -0.28714911
H        0.81784300       1.88232200       0.27462800      -1.31645242      -2.26568603      -0.48436417
B        0.86619200      -0.61650300       3.69677900      -1.32104879       2.75899329       1.54501031
F        0.53634800      -1.49849000       2.72979800      -0.35674013      -1.63072270      -3.06567822
F        0.11409000       0.68139600       3.46848600       0.63591436      -1.13967022      -0.34665119
F        2.19483400      -0.31941500       3.77496300       1.79824078       0.41767714      -0.55959348
F        0.41848000      -1.14754000       4.88593300      -0.65584244      -0.29770375       1.66066975
C        4.96189800       0.45469100       0.38509600      15.87889659      -0.92368877       3.97247188
C        5.85206200       0.25223000      -0.80491500       1.96031179       5.36153711      -1.96371467
N        7.23514100      -0.13662800      -0.54044300       0.52116234      -2.41845933       0.56263385
C        7.62585100      -1.44421600      -0.35988100       4.84321196      -4.70856187       0.44571134
C        9.08665500      -1.46692200      -0.05829100      -8.23042032       4.48062911      -1.15002900
N        9.37526600      -0.04408100      -0.05605100      12.72680050     -10.54155763       3.92967433
C       10.81830800       0.32620500       0.40766600      -3.55519500       7.35433102      -9.71629364
C        8.36066000       0.57837800      -0.25698100     -10.09903605      12.63175295      -2.00363977
H        5.64879200       0.90429300       1.23553300      -0.72894347      -1.66100856      -1.21901448
H        4.25747400       1.22573200       0.15777400       8.03493266       3.39961599       1.03348108
H        4.38887800      -0.54069700       0.71525100       9.03383343       1.65201599      -3.21757064
H        6.05523400       1.32408200      -1.24383100      -0.93941258      -1.98373931       0.15352436
H        5.50360500      -0.40245700      -1.58087400      -0.75718298      -0.83842333      -0.97412566
H        7.10377000      -2.40348400      -0.60906500      -0.34049701       1.26510182       0.23089972
H        9.72457400      -2.24013800       0.07043500       3.08287524      -3.10622748       0.63683124
H       10.74567000       1.36763600       0.77327900       0.34906634      -0.41946790       0.82687865
H       11.21654000      -0.38499500       0.93857100       2.79530912      -5.38100741       4.65394363
H       11.32483400       0.43007700      -0.69519500      -0.58169048      -0.46289318       3.21529333
H        8.34198300       1.69822200      -0.23958500      -0.17812394      -0.78776204      -0.06697969
B        8.38189200      -0.68166900       3.38556000       4.31288469      -2.82225789       0.72333025
F        8.13086700      -1.56460000       2.25220300      -0.13577570      -0.68047214      -0.45061170
F        7.88841600       0.48411000       3.10656100      -3.12873995       4.88288244      -1.12722615
F        9.83397100      -0.48229200       3.38906500      -0.06980864      -0.63867322      -0.22531113
F        8.03611400      -1.20121500       4.61986100      -0.73756371      -0.63623056       0.12744711
48
Properties=species:S:1:pos:R:3:forces:R:3 energy=-41276.2448202253 pbc="F F F"
C       -2.56882600       0.29257000       0.46772100     -15.64205361       0.34566064       8.51579411
C       -1.85466100       0.14163300      -0.61930800       5.85009940      -1.46625338     -12.05047910
N       -0.44083000      -0.23630900      -0.38244600      -0.71267329      -2.20524365      -0.49408896
C       -0.03911100      -1.59226800      -0.30718100       0.61954696       0.11176006       0.23928569
C        1.25160900      -1.58963400       0.08020300       3.06629188       1.32302330       0.59756850
N        1.72165200      -0.18310400       0.13475600      -3.06295015      -4.46660334       0.62185606
C        3.06347300       0.17442000       0.48231100      -4.22495093       5.22805022      -3.84020326
C        0.61269800       0.56398900      -0.07971500       0.09319218       1.32292493       0.19769162
H       -2.16687200       0.68021300       1.33561900       2.06558946       0.96664749       2.63652701
H       -3.44376500       1.12577300       0.21494000       2.44129420      -2.35629882       0.75251922
H       -3.32275400      -0.63275600       0.81778300       3.00293205       2.44825990      -1.05991172
H       -1.80089500       1.07563400      -1.19174600       0.37886528       0.55481463      -0.29293444
H       -2.23369900      -0.59547300      -1.42117300       0.32390761       0.70890551       1.41907517
H       -0.56289300      -2.52391200      -0.42479700      -1.40407031      -0.16285649      -0.37938261
H        2.03188200      -2.36687300       0.13952200      -0.47655051      -0.04627942       0.20179927
H        3.04928700       1.24364800       0.93282600      -0.38883696      -1.97987305      -0.13642139
H        3.51287000      -0.51932700       1.13101600      -1.33799424      -1.36530924       1.75909483
H        3.59511900       0.35115500      -0.55697500      -2.88535385      -1.73165550       1.90333642
H        0.61420000       1.62978100      -0.04589900      -0.28918190       1.40180795      -0.01127826
B        0.65962700      -0.79065400       3.48774500       0.40127587       0.23943641       1.95395064
F        0.31089700      -1.69934300       2.50552300      -0.82919374      -1.36952391      -2.31613824
F        0.05966800       0.47029000       3.23022300      -0.15353194      -0.30595929       0.21458111
F        2.04353300      -0.68966000       3.49219100       1.20868279       0.60655218      -0.18292117
F        0.28495900      -1.43232500       4.73691900      -0.39595410       0.89858183      -0.53660045
C        5.26768800       0.27822000       0.33888000       0.02046894       3.56690324       4.40103894
C        6.19506700       0.13556000      -0.78240000      -8.68212680       4.14546970      -8.08449755
N        7.44651700      -0.19773600      -0.47458300       7.31520837      -0.62334533       0.36289573
C        7.92025500      -1.45789400      -0.51302400       1.97466168      -7.15791230       0.90354428
C        9.29250000      -1.52773600      -0.13927600      -4.56752750       2.55803553      -0.50924872
N        9.63945700      -0.16256700      -0.02960800      -2.71212359      -2.13161502      -0.53818674
C       10.92176500       0.24010400       0.30352800       6.04817036      -1.44157231      -2.45403362
C        8.55245700       0.63521600      -0.28019900      -0.87779177       1.93679286       0.62330223
H        5.75154600       0.84853500       1.17345700       0.75359143      -1.69370072       0.20905527
H        4.48441200       1.10401000       0.18630600       4.19572751      -0.98900812      -0.51543162
H        4.62179500      -0.56835200       0.66177400       4.97384959       0.19450681      -0.55276589
H        6.15192200       1.20837700      -1.24930500       0.94537801      -1.71286772       0.60794358
H        5.67678800      -0.47157300      -1.73210100       1.97098476       0.97646993       2.96820937
H        7.32155600      -2.42936100      -0.63464600       0.35073293       2.02172314       0.03437347
H        9.97404000      -2.31715800      -0.01991500       1.36028433      -1.60244786       0.22495152
H       10.91157600       1.20823100       0.64175600      -0.04658037       3.23036238       2.75957808
H       11.47879900      -0.56256900       0.88947000      -0.80431613       1.41288505      -0.15967880
H       11.49843400       0.43240600      -0.67037400      -0.23914668      -0.91645937       0.80477973
H        8.52360400       1.74319600      -0.29737900       0.05987377      -0.56476635       0.14949328
B        8.70066400      -0.86433300       3.33884500      -2.03520164       1.50094782      -0.78255873
F        8.29575900      -1.76606700       2.20371500       0.97586152       0.77964238       0.85535346
F        7.96276600       0.41931700       3.07440600       0.44545079      -1.31417454      -0.11427540
F       10.03678200      -0.52132100       3.32230200       0.67758680      -0.59290552      -0.30481530
F        8.25083500      -1.36355200       4.56838800       0.23013260      -0.27497346      -0.60618198
48
Properties=species:S:1:pos:R:3:forces:R:3 energy=-41278.7501053799 pbc="F F F"
C       -2.63621700       0.78656400       0.56826000      -7.46804330      -0.92920226       3.41206543
C       -1.79997900       0.56452200      -0.53612300       1.67865386       2.38221656      -7.09039444
N       -0.43531300       0.18239100      -0.21769200      -0.52025463      -1.59212291      -0.79729402
C        0.02899000      -1.11093200      -0.23156000       1.25007202      -2.31593130       0.30972556
C        1.39622300      -1.04590100       0.02481800      -0.90988242      -7.06935348       0.65833693
N        1.71352900       0.22195800       0.24987000       3.31639115       1.82637242       0.54361726
C        3.11210200       0.72229900       0.54655700      -3.62898601      -4.00096150      -1.00839517
C        0.64901400       0.94456000      -0.03364100      -1.30348090       3.05264122       0.59534563
H       -2.07460400       1.19900000       1.35508100       1.06705388       0.44865619       2.18161403
H       -3.44992000       1.53969900       0.34740600       0.95703967      -0.58276108      -0.12825344
H       -3.24407500      -0.12657500       0.85983800       1.20812770       0.84381492       0.35244822
H       -1.77222900       1.57494800      -1.03431100       0.93637620      -0.46933739       0.06485983
H       -2.11166900      -0.05171800      -1.41065800      -0.42475093      -0.57138096       0.89656459
H       -0.58547300      -2.00037200      -0.32745700      -0.40551493      -0.15158709      -0.15745625
H        2.04957500      -1.94619200       0.24959100      -0.57959297       1.40647398      -0.39519919
H        3.05409400       1.74586100       0.91545400      -0.43960812       0.01718962       0.99059766
H        3.51612900      -0.19175700       1.15409600      -1.65270917       2.66642041      -0.14558401
H        3.59484100       0.69475100      -0.44313900      -0.96856536      -0.12355993      -0.18403619
H        0.65130700       1.96551600       0.00780700      -0.21449807       3.76758238       0.17088412
B        0.70643500      -0.37159900       3.47847400       0.48001629      -0.61054439       2.46060627
F        0.42020900      -1.32829400       2.48711200      -0.36577525      -0.55335615      -0.79800995
F        0.05777600       0.83180200       3.22727900      -0.57529445       0.55762269      -0.40076236
F        2.09471300      -0.18102800       3.55716100       0.65789822       0.21789626      -0.49916604
F        0.32611100      -0.90971600       4.80423400      -0.16203711       0.42875821      -1.44549535
C        5.35516100       0.89146500       0.56648200       3.04010427       6.30607329      -1.29031032
C        6.30232000       0.83775600      -0.66546800      -3.87127141      -4.59809479      -0.65811615
N        7.63358200       0.35079300      -0.33675600      -1.49473125      -1.61918876      -0.74507698
C        8.02466200      -1.02630200      -0.28712100       5.06685983       6.84735679       0.59965601
C        9.34963500      -1.01691900       0.00182800       0.59291062       2.73732603       0.99834854
N        9.74069200       0.39687900       0.17746400       1.51517285      -4.57183248      -0.64366090
C       11.08526400       0.84909900       0.36086400       1.98137707       2.47680113       9.16357833
C        8.68495100       1.15220900      -0.04285000      -1.59615937       2.88902092      -0.05139730
H        5.95265400       1.40733400       1.31005600       0.42766520      -1.01093002       1.61874758
H        4.57143300       1.72637800       0.38151200       3.29749149      -1.50789042       0.10051176
H        4.85679800       0.00101600       0.74050700       1.32662690      -1.98602097       1.14546780
H        6.27191100       1.75283400      -1.15393900       0.82148057       2.91631958      -1.41613358
H        5.81252200       0.06646000      -1.39500800       1.25892449       1.33636143       0.96820192
H        7.53722600      -1.85236600      -0.33843600      -5.24644199      -6.42339358      -0.80896879
H       10.08687000      -1.75209900       0.23604000       0.70957558      -1.16988023       0.11635898
H       11.04801600       1.99930700       0.91098300       0.22263040      -3.98770666      -2.20152883
H       11.61628900       0.12369600       1.21550700      -1.79509149       2.16881269      -2.27561547
H       11.72454800       0.81948400      -0.44476500       1.78920948       0.13170420      -3.52108208
H        8.70092000       2.23784100      -0.13045100      -0.16673240       0.33465898       0.10149228
B        8.84302200      -0.27444500       3.48405600       1.60916874       3.28806718       3.45035399
F        8.46836400      -1.06387900       2.50755100      -0.82958609      -3.23141442      -3.79449810
F        8.11772700       1.00176600       3.22190100       0.72274040      -0.45189536       0.37844531
F       10.28773400      -0.01427300       3.47298900      -1.48690370      -0.11762625      -0.25771105
F        8.46931300      -0.81388500       4.75278800       0.17153167       0.60596755      -0.55360363
48
Properties=species:S:1:pos:R:3:forces:R:3 energy=-41278.227866751 pbc="F F F"
C       -2.96836700       0.50056400       0.75753700       0.24552784       6.83978639       1.85117164
C       -2.05890800       0.39128000      -0.48891800      -3.68677656       0.30373378       2.54482769
N       -0.81209100      -0.09722000      -0.09727600       5.15299848       8.43487026       0.40540014
C       -0.23070700      -1.23836400      -0.14264200      -1.22420860     -10.64739348       0.24457329
C        1.09077900      -1.24141700       0.17808300      -1.53126723      -1.15351421       0.12105781
N        1.39429200       0.06481700       0.38866700      -1.33785048       0.39923578      -0.74903127
C        2.68140800       0.53499900       0.56063700       5.75544557       0.29959670       2.91778217
C        0.31493200       0.83151000       0.13055900      -3.61092809      -6.01634545       0.25776679
H       -2.42023500       1.04156000       1.64831500      -0.43217443      -2.14235553      -1.58052933
H       -3.68427900       1.37696400       0.56576100       0.24269004      -1.75354464      -0.30583205
H       -3.51482300      -0.34133900       1.06847800      -0.71992820      -2.00992178       0.50104731
H       -2.02242500       1.32809700      -0.97006500       0.63966911       1.99687740      -0.98392435
H       -2.52988200      -0.28239300      -1.11498700      -1.24107948      -2.31957589      -2.46900286
H       -0.89568000      -2.16667100      -0.13215400       1.13034474       1.11505159      -0.53267627
H        1.69130300      -2.07424600       0.38438400       1.55075427      -1.50653649       0.38557783
H        2.77945000       1.53272900       1.04643200      -0.82067127      -0.23319082      -0.26891570
H        3.22172800      -0.17780100       1.32632500      -1.47695852       1.34817918      -1.52236029
H        3.32371300       0.56938300      -0.35303400      -1.63424898      -0.47284829       0.00855746
H        0.35990500       1.80514300       0.11596700      -0.34186013       7.00900032      -0.08600592
B        0.48690300      -0.58168700       3.67756000      -1.19697250      -0.34318618      -0.19222887
F        0.12129700      -1.52078200       2.62280300      -0.16021863      -0.24243626      -0.47157356
F       -0.23535300       0.60455000       3.45632700      -0.07622536       0.58545129      -0.44105566
F        1.83322500      -0.43475600       3.66177000       2.21248426       0.70757551      -0.55216478
F        0.11519900      -1.12538200       4.90223200      -0.71981954      -0.66300303       0.85325093
C        5.28817900       0.65575500       0.42893900       4.01774126       2.07153802      -0.63849788
C        6.23852300       0.56518000      -0.81873500      -0.00046857      -3.15924835       2.28716633
N        7.62260400       0.01869400      -0.49301700      -5.38783971      12.56676285      -1.19577596
C        7.99473200      -1.14969100      -0.50659700       4.94807236     -14.14816220       1.09352953
C        9.37395800      -1.15699500      -0.17039900      -1.01697229      -4.67743570       0.10966766
N        9.77505900       0.11036300      -0.08935300       3.14061198       2.24520484       0.55655298
C       11.17251700       0.67055100       0.21142300      -5.59350696      -7.84517478       9.09471484
C        8.69987500       0.85111900      -0.34764000      -1.53948826       6.85297877       0.57124060
H        6.00178200       1.02552900       1.22787400      -1.28847137      -0.36273483      -0.11788542
H        4.58296400       1.43631100       0.11413400       0.53406590       0.03499946       0.86138382
H        4.82297200      -0.28229100       0.68184400       0.31092096      -0.55093217       0.13879005
H        6.34048700       1.43955400      -1.34883900       0.77188093       3.76264914      -1.11537241
H        5.89866300      -0.09699400      -1.56920600      -1.13733280      -1.81847886      -1.26022229
H        7.39227300      -2.07867300      -0.56162200      -0.01927448       0.74763584      -0.16499903
H       10.08454100      -1.95109200      -0.00332200       0.14625908      -0.82833026      -0.01951906
H       11.05510300       1.58416000       0.59301400      -0.52178318       5.02938386       2.62985051
H       11.57601500      -0.13726300       0.94522000      -0.13878959       2.01577865      -1.13249747
H       11.57983000       0.68798100      -0.61652100       6.10835363       0.14224551     -10.58872060
H        8.68367300       1.98539300      -0.25534700      -0.28037096      -1.69531068      -0.19386134
B        8.88011400      -0.53706600       3.28489900      -4.74074057       1.47328064       1.58617532
F        8.40437100      -1.43148600       2.20164900       1.33915262       1.11279861       1.06736384
F        8.14455300       0.84460900       3.05867100       0.68870940      -2.84672814       0.14812742
F       10.17538900      -0.11719700       3.26836900       1.25481862      -1.06054480      -0.13536797
F        8.35361200      -1.11972400       4.62017100       1.67793790       1.39639983      -3.52790586
48
Properties=species:S:1:pos:R:3:forces:R:3 energy=-41278.1045559425 pbc="F F F"
C       -2.68013900       0.87816800       0.30869200       3.73548965      -0.45759938      -0.64789221
C       -1.71703100       0.67548700      -0.95612000      -4.45856394      -7.20655880       1.80811481
N       -0.39287800       0.20570800      -0.71404300       2.49453905       6.68212473       1.38419265
C        0.09161900      -0.98986500      -0.58246900      -1.36367108      -9.60296836      -0.43037015
C        1.41956900      -1.04447100      -0.22779700      -0.19005643      -3.67749583       0.67446244
N        1.76050600       0.22291200      -0.08580900       0.95452525       8.54542518      -0.03676971
C        3.12610300       0.86261000       0.17026900      -0.48412622      -7.88569931      -1.98730885
C        0.66220200       1.09300100      -0.33837900       0.28942452      -2.91786835       0.03306640
H       -1.97651100       1.31366500       1.06737900      -1.17970974      -0.46311271       0.13927442
H       -3.37371000       1.58171700      -0.05240400      -1.62089015       1.60168334      -0.21000930
H       -3.18221500      -0.03075400       0.57631100      -0.23680484      -0.93792093       0.77202282
H       -1.69543100       1.56796500      -1.33861900       0.76858134       6.80517540      -3.54697362
H       -2.13786400      -0.06979400      -1.70028600      -0.06581699       0.94683780       0.64549049
H       -0.58502200      -1.88864800      -0.70533100       0.84396935       1.04483112       0.00579875
H        2.15367800      -1.84435600      -0.03152100      -0.60297379      -0.07494361      -0.20498664
H        3.10861100       1.80064000       0.64235300      -0.66776013       2.21588610       0.87842785
H        3.62725000       0.01423200       0.82418500      -3.26619105       2.67296198      -0.91890346
H        3.77953200       0.75378400      -0.80054600      -2.65246684       0.87587851       1.19034462
H        0.71754800       2.15199900      -0.37378400      -0.16480564       1.48641363      -0.11879994
B        0.83128700      -0.35092500       3.11412700       0.31592862      -0.16848577       2.41475277
F        0.48188500      -1.31576300       2.03589600       0.16794714       1.18812562       0.99789766
F        0.12108400       0.92235500       2.98108600       0.96975474      -2.06226731      -0.36432569
F        2.25963100      -0.19506300       3.14018300      -1.32052471       0.16918936      -0.73801709
F        0.51789800      -0.93993600       4.49939500       0.00135075       0.89851978      -3.10465832
C        5.44139200       0.45659700       0.56704700       2.95825793       1.08842175       4.03908520
C        6.38648000       0.29792000      -0.61091600      -6.24979436       1.20773992      -2.79332027
N        7.65707400      -0.10988100      -0.35269900       2.56660962       3.85936267       0.71077011
C        8.14339400      -1.27027100      -0.15055000       0.04929589     -15.59666908      -0.56027970
C        9.51156500      -1.38762500      -0.01180500      -2.23854667       2.57298938       0.82397006
N        9.79926000      -0.02092700       0.15144300       4.24653638      -3.38106461       0.27864789
C       11.16782200       0.40107200       0.44419500       1.84403736       1.24334401       3.99198875
C        8.72065700       0.67698000      -0.08515200       0.82484565       7.97885207       0.33107429
H        6.02358300       0.86292500       1.45548000      -0.33245564      -0.78276593      -0.74513566
H        4.69453500       1.22921000       0.37132400       2.74289251       0.06247685       0.28190418
H        4.89735100      -0.46363600       0.91731000       1.75649937       0.35638514      -0.49241507
H        6.47877000       1.28625300      -1.08848400      -0.20353859       0.08798422      -0.40709513
H        5.90105200      -0.43260800      -1.31878600       0.59307889       0.60191745       0.03619339
H        7.58458000      -2.28918800      -0.34229200       0.45334394       2.72084448       0.51443734
H       10.16110700      -2.16426900       0.27310100       1.13392043      -1.55540737       0.33989790
H       11.21482600       1.40078900       1.00509100      -0.40767513      -1.12995200      -1.15243469
H       11.68099800      -0.32369600       1.17927600      -1.29887005       0.63790405      -0.86796749
H       11.76960000       0.41019300      -0.43635000       0.78302534       0.30301095      -1.63955169
H        8.93255700       1.76098700      -0.01941700      -1.52283085      -0.06351349      -0.36527661
B        8.86672800      -0.71903400       3.59979100       2.19877758      -0.23096596      -1.66058259
F        8.52124700      -1.63659000       2.37258400       0.72291303       1.03171517       1.88818435
F        8.14984800       0.46039000       3.31568500       0.58376011      -0.36621955       0.27920817
F       10.44474600      -0.46891800       3.45424000      -4.04650098      -0.69737724       0.33000188
F        8.53771100      -1.27607300       4.86316400       0.57979264       0.35373446      -1.79319217
48
Properties=species:S:1:pos:R:3:forces:R:3 energy=-41277.2663804577 pbc="F F F"
C       -2.79523300       0.28372800       0.47095300      -4.79885722       4.34371391       1.28596673
C       -1.99196300       0.16358200      -0.69814100       3.60771053       0.38198151      -5.96603270
N       -0.53629500      -0.19904600      -0.44292400      -3.57795040      -0.77178247      -1.05324981
C       -0.08052200      -1.46065300      -0.34336000      -2.38830078      -8.86510235      -1.06534756
C        1.26099500      -1.45111600      -0.08444900      -1.22624413      -5.35354589       0.47535252
N        1.53714900      -0.16934200       0.07062600       8.60974282       0.85905292       1.14336547
C        2.99627900       0.25724500       0.30436700      -5.20268502      -0.42600878       4.27187467
C        0.54396000       0.57065200      -0.28247300      -2.69142070       7.62935899      -0.02086302
H       -2.18164100       0.70407100       1.23449100       0.75333734       0.30234259       1.64995542
H       -3.48730400       1.22409000       0.13308500       0.95424374      -2.97863066       1.59141877
H       -3.37304600      -0.55288500       0.83524100      -0.30891933      -0.69523800       0.04286935
H       -1.84031300       1.16447000      -1.16268700      -0.29600599      -0.03161897       0.16258551
H       -2.33962800      -0.45875600      -1.57870900       0.09910538      -0.03842461       1.16914962
H       -0.70725900      -2.50022600      -0.55671500       1.58534162       3.76348052       0.77058743
H        1.93972700      -2.30687700       0.06278100      -0.08179024       0.50492291       0.07147784
H        2.87079800       1.28950300       0.80318800       0.54776732      -1.71609595      -0.35303049
H        3.45769000      -0.59186500       0.97597500      -2.26432898       2.21044841      -0.96521443
H        3.50417400       0.33674500      -0.59885700      -0.05860164      -0.38550262      -2.97547942
H        0.54263900       1.65919100      -0.19691800      -0.13407387       0.15040786      -0.06400665
B        0.61573400      -0.74248800       3.33835900       0.51169680       0.27387872       3.09768965
F        0.29072500      -1.70901100       2.38236800      -0.38348759      -0.32335869      -1.16043363
F       -0.08831700       0.48845800       3.19808500       0.41851707      -0.57849879      -0.67111633
F        2.04054300      -0.56641200       3.37351600      -0.85125114       0.21066842      -0.49613225
F        0.21889000      -1.30230700       4.66213900       0.32327046       0.45608788      -1.44453948
C        5.38244400       0.35171900       0.35491200       0.19146434       5.25078823       2.13275578
C        6.36051600       0.23755600      -0.82266400      -6.23464029      -2.98764737      -0.56354288
N        7.67607900      -0.15381300      -0.45857900      -6.04773782      -2.18988172      -1.90883002
C        8.01005900      -1.46216300      -0.42196100       2.86195650       1.13298286       0.46954397
C        9.30145100      -1.43237500      -0.09548900       6.91428952      -3.28123847       2.01000908
N        9.85283800      -0.12540000      -0.12120200      -6.23319948       1.91851489      -0.03623450
C       11.09302700       0.50169600       0.34519200       3.37666670     -16.73919291      -7.53090258
C        8.63639100       0.66442500      -0.27310000       8.07392392       5.04053366       1.40225257
H        5.88788400       0.83993300       1.23851500      -0.13278702      -1.09534663      -0.45089822
H        4.50747500       1.13604700       0.14657000       4.63257698      -1.14813714       0.15470434
H        4.77898600      -0.47461700       0.63763100       2.04075819      -1.69147866       0.28894461
H        6.37600700       1.18978500      -1.20580100       0.47175996       3.32094937      -2.06767406
H        5.74929400      -0.48883500      -1.53179800       2.53343199       1.33498018       0.76851108
H        7.54048500      -2.34083400      -0.52361500      -3.51991716      -3.59984668      -0.67596247
H       10.05461500      -2.29504200       0.00641500      -1.45340249       1.21160913      -0.11590236
H       11.00361000       1.29725900       0.76040500      -1.34268811      12.56798770       6.53040887
H       11.50835600      -0.38397100       0.90465700       0.18176980       1.59438945       0.98168387
H       11.66700900       0.37791300      -0.59651100       0.82460570       1.75729885       0.31159143
H        8.70141900       1.79688200      -0.25617300      -0.71122774      -1.48412272      -0.15346456
B        8.78678700      -0.78832100       3.30646500       0.97208120       0.29663795       0.87876681
F        8.43673100      -1.69381200       2.19576000       0.56316419      -0.07441087       0.18403816
F        8.01199400       0.38419000       3.03585400       0.68220198      -0.32808780       0.13580160
F       10.23107600      -0.57514200       3.27374800      -1.74723055       0.01442452      -0.45374813
F        8.47719700      -1.31618500       4.61882500      -0.03632068       0.24100909      -1.80062072
48
Properties=species:S:1:pos:R:3:forces:R:3 energy=-41276.1691786453 pbc="F F F"
C       -2.72638300       0.48908000       0.19741800       0.59160714       8.42615733       8.86509284
C       -1.83880800       0.44756900      -0.81664100       4.76949286      -1.61729979     -13.12570873
N       -0.43658300      -0.10043200      -0.75317200      -2.21503068       3.85600938       1.36408215
C       -0.01256300      -1.32855500      -0.59988500       4.80349502      -3.32952602       0.98822448
C        1.36433800      -1.27472800      -0.24797500      -3.12776287      -8.12429390      -0.20549542
N        1.72719000      -0.05129000      -0.12504000      -0.15207385       8.25056754      -0.22565388
C        3.08103300       0.54263000       0.18753900      -1.22302217      -8.43634142      -5.50322859
C        0.58852900       0.69665100      -0.42761500       3.48390893       8.85565589       1.32066352
H       -2.11455800       1.02860600       1.09766500      -1.62388152      -1.99359834      -1.47949728
H       -3.36127700       1.34682200       0.00264700      -1.48920855      -0.26127051      -0.33191621
H       -3.15793800      -0.33737900       0.54793100      -2.50971425      -4.50181239       1.55882909
H       -1.60299500       1.38822400      -1.45699400      -1.05116506      -0.87192003       1.78438737
H       -2.22412800      -0.26556400      -1.64465300       0.10016342       1.01608792       0.88890270
H       -0.56257500      -2.15769900      -0.80409700      -2.30785587      -3.27856850      -0.67514676
H        2.03364600      -2.11223500      -0.15926600       0.50308447      -0.71443812       0.22772633
H        3.16608000       1.49137700       0.56609300      -1.81717601       3.56783148       1.85083643
H        3.54849500      -0.36659700       0.77791600      -4.03664610       2.75184919      -1.29171323
H        3.68403300       0.50439200      -0.86212300      -2.12962444       0.32612981       2.35412050
H        0.73339000       1.93559800      -0.34637900      -1.31778652      -4.31540086      -0.47035467
B        0.74390500      -0.61774800       3.13309900       1.32499942       0.07504659       1.58942641
F        0.38277900      -1.57624800       2.07179400       0.84135700       0.60133532       0.40050918
F        0.01361500       0.55648400       2.94580300      -0.30046083       0.51291055      -0.75923092
F        2.19411300      -0.27668500       3.15489800      -2.09720632      -0.92953955      -0.73998014
F        0.38513800      -1.13523200       4.43624300       0.39392731      -0.15603791      -1.41898266
C        5.25957100       0.23812100       0.86111300       1.29613979       2.05747578       3.16447754
C        6.09223700       0.01995000      -0.41085600       0.50872969       5.68856672       4.00162247
N        7.41590200      -0.40762500      -0.10222900       1.16743280       5.37226225       0.33007259
C        7.89063200      -1.59501800      -0.01742900       1.88195907     -11.56788842       0.24612945
C        9.23643500      -1.68830500       0.31592000      -3.83840690       5.02439747      -0.05443761
N        9.57747300      -0.30822700       0.40302400       3.00137270      -2.19176551       0.67102566
C       10.99998300       0.14381400       0.71084900      -2.53869127      -0.53300558      -1.29416458
C        8.46594500       0.43890900       0.25021800      -0.18242122       4.19492006      -0.13617440
H        5.82091500       0.76067200       1.74688400      -0.38299371      -1.79927602      -1.61416715
H        4.43738100       0.96898300       0.61099400       4.94554879      -0.36676479       1.17900060
H        4.60916800      -0.64466400       1.15790100       3.30490502       0.12715140       0.89715303
H        6.20479900       1.07470000      -0.76034000      -0.12486380      -0.77972660      -1.03060960
H        5.69530400      -0.64848000      -1.03577400      -2.49749485      -3.37455594      -3.93887803
H        7.35732500      -2.58125600      -0.11004300      -0.36653748       1.44637946      -0.23451386
H        9.91518200      -2.43425300       0.40454800       2.66883871      -3.28252422       0.41416577
H       10.83875600       1.10820400       1.13353700       0.67741974       1.64059620       0.73941669
H       11.38399900      -0.57683400       1.40275800       0.78022143      -0.71445673       1.12906281
H       11.51368500       0.13251100      -0.24846700       0.79014896       0.30658055      -0.39651477
H        8.56627100       1.55622000       0.18683700      -0.78707860      -1.04308319      -0.05030888
B        8.64373700      -0.83794500       3.76772100      -1.58332938      -3.33614310       1.10905755
F        8.26685200      -1.87482800       2.70260000       0.60759140       0.83744864       0.37291018
F        7.92678600       0.29098800       3.45795500      -0.25302220       0.81625151      -0.05474339
F       10.00324500      -0.71130500       3.77534700       1.03761412       0.46524794      -0.26746212
F        8.21101700      -1.50183200       5.04728000       0.45549339       1.28780718      -2.15930539
48
Properties=species:S:1:pos:R:3:forces:R:3 energy=-41274.9194423519 pbc="F F F"
C       -2.56628400       0.46288500       0.56709700      -6.86701537      -0.34982771       2.61634487
C       -1.73183100       0.27792600      -0.59637500      -1.21137939       2.35856824      -7.64890779
N       -0.40833400      -0.18009200      -0.34404100       2.55074531       0.54911851       0.25384355
C        0.05747100      -1.46820300      -0.28284600      -0.13350522      -3.19989058      -0.09031426
C        1.38563400      -1.51951100       0.01310400      -1.58326597       4.35411564       0.64904930
N        1.77219400      -0.11848400       0.20067700      -5.12755321      -3.20123384      -2.36861429
C        3.05668100       0.34272100       0.30563800      -1.46418219       2.91744513       3.41160770
C        0.67263600       0.63431900      -0.12712400       0.50962994       4.06316305       0.86936665
H       -1.96929600       0.91961400       1.37220500      -0.23836576      -0.61122416       0.68682438
H       -3.39770300       1.26404600       0.27943900       1.83425641      -1.88174403       0.74934895
H       -3.22177400      -0.56093800       0.81067300       2.52643701       3.23410535       0.01564544
H       -1.60222100       1.38203200      -1.15048400      -0.27532221      -3.40614325       1.33399250
H       -2.18344000      -0.47422400      -1.39069500       0.72288660       1.73016482       1.53984780
H       -0.61121200      -2.30983800      -0.37649800      -0.54274665      -0.49288487      -0.23376481
H        2.09529800      -2.23547400       0.19354300       2.14910347      -2.87582698       0.51163089
H        3.09249800       1.34152000       0.96721200      -1.42153349      -2.26688586      -1.69846692
H        3.56667700      -0.34193000       0.98319100      -3.37077763      -0.36585392       0.23433343
H        3.73575900       0.49501700      -0.53097500      -2.64609138      -0.98655587      -1.93422210
H        0.73291700       1.78225000      -0.11615500      -0.57464040      -1.93049159      -0.06985589
B        0.83108100      -0.76046700       3.43108100      -1.05967261       1.87976735       1.91888036
F        0.52592900      -1.58955500       2.35559000      -0.14554700      -0.92690425      -0.62183153
F        0.06573600       0.48812800       3.25967700       0.22422499      -0.39665423      -0.57341701
F        2.16944800      -0.45815000       3.51387000       1.21923358       0.08291708      -0.58211246
F        0.40298500      -1.21462500       4.72193200      -0.17315590      -0.59194898      -0.75018154
C        5.16508000       0.47904500       0.58501400       5.30550096       8.81939136      -1.82347089
C        6.02011100       0.38386400      -0.65662300      -0.87839725       1.24459351      -3.42862919
N        7.35697800      -0.07843100      -0.28747500      -1.08666749       0.09647769      -1.13840181
C        7.83213700      -1.37675900      -0.26734700       1.59037115       0.62220797       0.53985003
C        9.16837600      -1.13534900       0.03483400       1.24531143     -17.48152695       0.08771252
N        9.54637700       0.06122800       0.03432300       3.61296703       6.89257898       1.62189419
C       10.90753500       0.58436900       0.42693200       0.76584290     -10.81643514      -4.78028101
C        8.39536400       0.73500200      -0.03240500      -1.15237542      11.07692123      -0.16704338
H        5.77947200       0.93533600       1.33054400       0.91188498      -0.41057646       1.64968188
H        4.37819100       1.33149300       0.34383100       5.22609131      -1.44351327       1.71549881
H        4.65710900      -0.35162900       0.76265000       1.74007821      -4.18366112       1.64028175
H        6.07899800       1.39556300      -1.22434400       0.41664770      -1.35993063       1.30709743
H        5.62889700      -0.29907200      -1.47867800       0.26523925       0.15960119       1.14209925
H        7.21115400      -2.24136500      -0.39570700      -0.31225426      -0.83826777      -0.01354803
H        9.91190700      -2.09344200       0.16547300      -1.91392901       3.20154035      -0.32321027
H       10.83199000       1.42757700       0.84564200      -0.63344852       8.77173193       4.67441804
H       11.39010600      -0.26319000       0.99562100      -0.49634083       1.23483399       0.31053920
H       11.41800000       0.58250000      -0.53201200       0.83071526       0.79551934      -0.58366907
H        8.41947600       1.97281200      -0.08896900      -0.53944237      -4.19792537       0.14640263
B        8.60829000      -0.59936300       3.43963300       0.70661343       1.00038833       3.41157996
F        8.21855100      -1.43150800       2.43756400      -0.10121647      -1.86262990      -2.11240451
F        7.92886000       0.64991900       3.16937300       0.70209750      -0.46889007       0.58386056
F       10.06867200      -0.41744600       3.48718600      -2.27636916      -0.23507164      -0.10733324
F        8.11077600      -1.26647500       4.74955600       1.15363008       1.71926573      -2.58239986
48
Properties=species:S:1:pos:R:3:forces:R:3 energy=-41278.3782770848 pbc="F F F"
C       -2.86391000       0.18810400       0.61499300      -1.60043207      -0.11722419      -1.09769640
C       -1.99886400      -0.01610600      -0.61329400      -0.16918354       1.57144697      -3.74344746
N       -0.60281400      -0.43881900      -0.33789100       0.04796572       4.35512884       0.13337292
C       -0.14907900      -1.65001500      -0.23401100       2.60084906     -10.23957176       0.73416369
C        1.22151200      -1.71156300       0.12645800     -10.53618989      11.15720280      -1.99794211
N        1.55240900      -0.23041100       0.09148300      11.25873393     -15.59600172       2.36939976
C        2.82822700       0.12139800       0.47733500       4.15769260       2.81050207      -5.60569011
C        0.53941100       0.33718900      -0.03515400     -17.43507674      16.38831474      -2.73718281
H       -2.22133400       0.62832200       1.34148900       0.63133127      -0.10606726       1.98562672
H       -3.56356100       0.99071000       0.33163300      -0.44213875      -0.28733157       0.15348259
H       -3.42542000      -0.74731400       0.85002800       0.60323171       0.72974757       0.62668513
H       -1.86269100       0.98626800      -1.17476400      -0.32971390      -1.37336056       0.83443023
H       -2.45237900      -0.73607100      -1.38596000       0.75247902       0.67612126       1.15226536
H       -0.77910600      -2.61008100      -0.37111700       0.86207685       1.96337946       0.20495244
H        1.78734100      -2.43470200       0.17313600       7.93744421      -8.98954337       0.83474838
H        2.80750300       1.12105200       0.80409200       0.24546952       1.87998052       1.83216147
H        3.28995700      -0.61515700       1.03847700       0.90068417      -1.82534468       2.52402281
H        3.47303800       0.21364200      -0.52971400      -1.65046196      -0.52685023       2.13526371
H        0.46479200       1.52678600      -0.08613000       0.04138596      -2.99260014       0.22827585
B        0.59233700      -1.03708600       3.45886500      -0.21249543       2.32001399       2.62010109
F        0.17483800      -1.90464900       2.47003400       0.68973391      -1.54611101      -1.54843572
F       -0.16156700       0.17335200       3.19013600       0.21275318       0.29078067      -0.27938339
F        1.98440000      -0.66727300       3.51744000      -1.12131404      -0.94792014      -0.64144203
F        0.13327500      -1.51031300       4.74639800       0.63021804       0.02880777      -0.97335913
C        5.55611100       0.60260400       0.50962000      -3.73195579       1.19972893      -1.01888819
C        6.33072900       0.52888800      -0.77120100       3.89540214       1.49122627       0.53536754
N        7.78835200       0.15926000      -0.48728200      -1.29665140      -4.57718234       0.14061402
C        8.18730300      -1.21020100      -0.35687900       1.60180167      -1.44631851      -0.34552144
C        9.55284100      -1.26412400      -0.11766500      -2.93716269       5.50026313       0.80760296
N       10.02872700       0.11658600       0.05397200      -7.00254643      -3.83223457      -1.05418943
C       11.28900000       0.57429300       0.42166300       4.51375158       0.30330213      -5.64074555
C        8.87187200       0.85524900      -0.14528100       2.80296581       7.30880888       0.81747901
H        6.12380200       1.07016200       1.27036200       1.46900887      -0.15311647       1.85791374
H        4.80544200       1.44903300       0.28654800       0.71616970      -1.70327517       0.57023729
H        5.02055200      -0.37071300       0.75059000       1.53358455       1.54983965       0.20652161
H        6.54654100       1.49369300      -1.23973000      -1.08401866       0.70578084      -0.41449791
H        6.03799400      -0.19429100      -1.48610400      -1.03276085      -1.29280043      -1.42853099
H        7.63451500      -2.16142400      -0.36465800      -0.85982972       0.73317194      -0.43988599
H       10.22229100      -1.99616800      -0.00795000       3.26367386      -4.25969215       0.60143725
H       11.27437500       1.55708100       0.75410500      -0.33601501       2.70708696       1.97914399
H       11.82111400      -0.13380100       1.03407900       0.62277871      -0.55372478       0.77268281
H       11.76797600       0.73673900      -0.69052400       0.14741753      -0.77671902       3.10852468
H        8.96600700       2.02871800      -0.15361300      -0.58346047      -2.59774165       0.00747116
B        8.94557600      -0.48914000       3.33951000       1.14174500      -0.75778331       1.34798544
F        8.65563400      -1.42746600       2.19051600       0.25049670       0.81523546       1.25073153
F        8.34310400       0.73966900       3.10034200      -0.86919018       0.31661510      -0.49357749
F       10.37603100      -0.23474700       3.33337700      -1.23637365      -0.87462681       0.02275825
F        8.47923800      -1.02145600       4.66463900       0.91689929       0.56722843      -2.96526698
48
Properties=species:S:1:pos:R:3:forces:R:3 energy=-41273.9540363312 pbc="F F F"
C       -2.73073500       0.25177700       0.46874200      -2.22263530       5.14573380       3.27074836
C       -1.79253300       0.12599800      -0.67912600      -9.32444953      -0.23850175      -6.70501907
N       -0.55757300      -0.33579400      -0.50895800       6.31014331       1.46953915       1.65142825
C       -0.07821300      -1.56188600      -0.33459100      -3.31214365      -7.24193558      -1.49151564
C        1.22011500      -1.52924300      -0.10017700       2.54908766      -9.85177562       1.46244590
N        1.58721000      -0.32458800       0.17193100       1.45403281       6.30377014      -0.53465764
C        2.99789700       0.11651400       0.31403400      -9.59750938       6.26168916      -0.78435001
C        0.52670700       0.47317600      -0.21437000       0.98799120       4.70562999       1.04666705
H       -2.09079900       0.73490600       1.34552800      -1.86008353      -1.68767684      -1.30225824
H       -3.57713000       1.09154700       0.21488100       2.61119460      -2.16017540       0.41300249
H       -3.35838400      -0.60187900       0.70476300       0.53184855      -0.96782371       0.64645196
H       -1.72345900       1.12002100      -1.13604200       0.12785403       0.32346559      -0.43518334
H       -2.36230000      -0.61843800      -1.52291300       1.86303640       2.45344427       2.34332765
H       -0.67382300      -2.49136000      -0.48713000       0.16831548       0.87217034       0.05195956
H        1.85942300      -2.44512500       0.11634700      -0.76554036       1.39769875      -0.40059821
H        2.89731500       1.18884200       0.90552100       0.04678445      -2.93934656      -1.98008867
H        3.41678800      -0.47451900       1.03093400      -2.25761483      -2.46291306       2.83187189
H        3.52081800       0.26150100      -0.66387300      -3.11244456      -1.54388886      -0.01459042
H        0.61303900       1.59026300      -0.09322000      -0.75679600      -1.19375866      -0.28628399
B        0.60276700      -0.88558100       3.37165100       0.72186366       1.73494793       1.50399454
F        0.36802500      -1.78002100       2.36273700      -1.29506460      -1.14383529      -1.77124469
F        0.00696700       0.42092200       3.21478700      -0.42545282      -0.70469285      -0.56678977
F        1.98500400      -0.66807300       3.37980800       1.80054407       0.50639826      -0.31179534
F        0.28041700      -1.41390000       4.62109700      -0.83698482      -0.37941536       0.58866772
C        5.02789600       0.21330300       0.36253300       6.19837898       4.92602487       4.89677040
C        5.83722900       0.15291700      -0.80312300       6.60079157       2.19939785      -4.47962946
N        7.36657500      -0.24548100      -0.54672900     -11.24869556      -6.86448500      -2.67506096
C        7.72451800      -1.63608400      -0.49970200       5.63891373       6.24095777       1.08061835
C        9.05389900      -1.65586200      -0.15024500      -2.59408017       3.19327554      -0.05129767
N        9.37595500      -0.24460700      -0.09647600       9.21474339      -4.22979116       2.91568150
C       10.78559200       0.24571500       0.33379600       0.38612755      -3.56250555      -4.87846791
C        8.34392600       0.47646600      -0.28644000       1.94272634      11.74576640       0.98041723
H        5.55501600       0.75768700       1.22533500       0.14953492      -1.71263201      -0.77443489
H        4.39119600       1.04244200       0.09456700       1.51163252       0.60997972       0.93733335
H        4.43726000      -0.60372300       0.67935300       5.04702637      -1.46016562      -0.35980348
H        6.00428600       1.18331800      -1.35688300      -0.69495883      -1.83019153       1.37709198
H        5.55104400      -0.52725400      -1.59136400      -0.59552580      -1.00575755      -0.63637153
H        7.10818000      -2.35522500      -0.63070500      -5.72322224      -6.16422358      -1.20588852
H        9.73528800      -2.40120500       0.08210700       1.99418380      -2.06741642       0.50313049
H       10.77520100       1.20730600       0.72785100      -0.41388606       2.65725030       1.63069659
H       11.24405400      -0.54575100       0.96956000      -0.30923788       0.54213839       0.14872783
H       11.33830900       0.29316100      -0.70703300      -0.58593938      -0.08089009       2.26232062
H        8.37343900       1.62659100      -0.25353200      -0.23817492      -1.90863401      -0.04733814
B        8.41858200      -0.77455000       3.23652800       1.85682209      -3.11768572       3.25684879
F        8.13787200      -1.79350300       2.30641600      -0.11382935      -0.56869106      -1.66061200
F        7.70414900       0.34444200       3.00208400      -0.43427970       1.93146278      -0.70774932
F        9.88252900      -0.68384100       3.28013100      -1.77215847       0.71825198      -0.16743863
F        7.94668700      -1.39231000       4.53966600       0.80079141       1.13506983      -1.57501923
48
Properties=species:S:1:pos:R:3:forces:R:3 energy=-41277.4435070961 pbc="F F F"
C       -2.92032800       0.50843800       0.08247000       0.51726341      -2.16044272       6.58576342
C       -2.03250100       0.37187900      -1.05779900       1.07609285       1.79476422      -4.15818210
N       -0.67161500      -0.09080400      -0.78258900       1.17420755       0.41480512       0.21978414
C       -0.29217100      -1.38822700      -0.68534300       8.94267677       5.20570695       2.64656124
C        1.09046800      -1.42821700      -0.44368400      -0.72212579       2.30916069       0.76820078
N        1.52742100      -0.06141000      -0.31817400       2.18873201      -2.23799543       0.08950224
C        2.86394500       0.55642500      -0.04567500       0.46023008      -8.95980142      -0.72625681
C        0.48553700       0.64329700      -0.53025700      -7.07629643       7.98960324      -1.22249907
H       -2.38688800       1.02066600       0.97921700      -0.52465897      -1.65970312      -1.25389479
H       -3.60294600       1.22260100      -0.11763000      -3.71029977       3.04972552      -1.47023140
H       -3.50403800      -0.43957300       0.42400000       1.60550934       1.65270105      -0.64147430
H       -1.87938700       1.34346600      -1.63037400      -0.28907797      -0.56159880       0.96632877
H       -2.48675800      -0.26532100      -1.82178700       0.08461285      -0.83423659      -0.32251399
H       -0.77183400      -2.14335000      -0.90546700      -6.88799156      -9.39732085      -2.56146872
H        1.93501500      -1.97244100      -0.17673000       1.25040579      -3.29637105       0.31592183
H        2.84154100       1.40359300       0.49523000      -0.71731091       4.49012125       2.38491507
H        3.26566300      -0.31902000       0.64756500      -0.35944824       2.34820690      -1.31422705
H        3.39692900       0.56185900      -1.00493300       0.23647415       0.41426711      -0.07281423
H        0.35381800       1.75714300      -0.58124400       0.73242122      -0.91136691       0.25094775
B        0.42582200      -0.71181500       3.09998400       4.48541392       1.54869516      -5.22273471
F        0.14194700      -1.55986500       1.87876500       0.85323047       0.13237666       1.37546979
F       -0.17944200       0.47895700       2.74198900      -0.25147975       0.95378761       0.33619875
F        2.06268300      -0.44796800       3.10459600      -3.69152993      -0.68831102      -0.52865581
F        0.14266400      -1.21131200       4.25889000      -1.21048753      -1.84972046       3.24479448
C        5.61338200       0.55910900       0.51103100      -3.46059699       4.48680319      -0.93027163
C        6.37568700       0.41166000      -0.73989600       1.79556959       1.86499799      -4.26785207
N        7.79240100      -0.08015900      -0.51123100      -7.18643208       0.88126981      -1.77340643
C        8.17069000      -1.33567900      -0.35674300       7.60031289      -0.36546895       0.66164209
C        9.57135700      -1.38363100      -0.20250700      -3.01145940       3.87579894       1.93821489
N        9.84890900       0.03910700       0.13359600       4.63976997      -5.54878334      -0.51526941
C       11.24027200       0.54153200       0.25418600       0.81956448       1.42905659       2.64932076
C        8.77961400       0.67920800      -0.22160100       2.26347420      11.26565224       1.02254040
H        6.17789500       0.99772100       1.33382500       0.36541798      -0.48282480       0.62565435
H        4.77844200       1.35309300       0.19318800       2.66747639      -1.42288566       1.34682278
H        4.99412500      -0.26371700       0.66634600      -0.34071743      -2.50841005       1.62723210
H        6.36850600       1.41763000      -1.30854000       1.24799977      -0.92504823       1.33902046
H        5.99893900      -0.17257700      -1.60273800      -0.60495136      -1.14746856       0.91358278
H        7.66864900      -2.13806200      -0.50801500      -5.12739452      -6.51526925      -1.38354795
H       10.28633600      -2.10945200       0.00613000       1.57401691      -2.13753836       0.50771195
H       11.29203300       1.56618500       0.83984000      -0.34967636      -1.78789957      -2.05481882
H       11.74274100      -0.14076300       0.96892200      -0.03366326      -0.22365170      -0.14683389
H       11.75405800       0.44189400      -0.71682600       0.10970190       0.75870535      -0.16315050
H        8.89983100       1.80897000      -0.22943300      -1.20786163      -1.35013197      -0.17075275
B        9.07586200      -0.52668700       3.45070300      -9.92280752      -1.50720098      -1.07320927
F        8.55583100      -1.64334600       2.36361700       1.76414111       2.24219727       0.98300358
F        8.16314100       0.66840400       3.11779600       1.97833675      -2.10399222       0.15429640
F       10.30825600      -0.24028700       3.45121300       5.81049943       1.12283477      -0.75277656
F        8.58622600      -1.12435700       4.63035900       0.44469561       0.36657243      -0.20892337
48
Properties=species:S:1:pos:R:3:forces:R:3 energy=-41269.3962846586 pbc="F F F"
C       -2.98937400       0.25910800       0.48661800       3.25990103      17.60424960       4.27026151
C       -2.03494800       0.27002500      -0.55531800      -0.19817878      -0.03230390     -11.56130641
N       -0.67193700      -0.23812200      -0.27415200      -8.10590774      12.96109484      -1.08327427
C       -0.37110600      -1.41260400      -0.31537200       3.23021976     -16.78243652      -0.50925953
C        0.98495700      -1.35795700      -0.03549300       2.82811663     -12.88347502       1.32448349
N        1.46172400      -0.18394400       0.12718700      -4.94380200       5.67440509      -0.38460217
C        2.71322100       0.24427100       0.44090300       0.89147988       8.75386030      -6.98526924
C        0.31848400       0.62377300      -0.06711200       2.90183146       4.57333425       1.17839836
H       -2.30908400       0.88161400       1.35165500      -2.84472818      -3.41673741      -1.16830244
H       -3.77541600       1.22499100       0.26617100       2.19130941      -3.60378225       0.42826711
H       -3.48812800      -0.52030500       0.52704100      -5.71703845      -9.75132828       2.16417414
H       -1.95910900       1.24216600      -1.25658900       0.33770169      -1.61855899       2.73093659
H       -2.45108000      -0.43196500      -1.48690700       1.39837194       1.29479969       2.79912881
H       -0.96459000      -2.45784500      -0.47600400       1.27406498       3.68265611       0.47975881
H        1.72545300      -2.24909800       0.09442000      -1.78089892       1.59655141      -0.41251477
H        2.75604500       1.34965900       0.80330600      -0.94143602      -2.36809201       0.25577537
H        3.24703400      -0.35788400       0.99238900       2.40864032      -4.35076591       4.53436146
H        3.36652600       0.42683100      -0.60699500      -3.83034844      -1.74161880       2.58805164
H        0.32387800       1.74354200      -0.11303000      -0.31699109      -1.19304778       0.14096214
B        0.38663300      -0.74923700       3.38455100       2.22456410      -1.38769707      -0.06242142
F        0.07731600      -1.70837600       2.21698800       0.61741364       0.66820795       0.70774489
F       -0.31636600       0.39522900       3.10519900      -0.52904730       0.96921919      -0.33658471
F        1.83325400      -0.54139400       3.41798600      -1.66605434      -0.08117487      -0.70729612
F        0.04354900      -1.34179400       4.61298200      -0.45038184      -0.09057515      -0.67776769
C        5.01867600       0.60016600       0.17965600       3.81303643       2.73489779       4.20199020
C        6.06660800       0.54245300      -0.90603900      -3.80337537     -10.47889489      -3.34924030
N        7.44516500      -0.03697100      -0.65789500      -8.47929223      12.10447162      -1.67545599
C        7.77851100      -1.21370000      -0.49666900       2.90124616     -14.14727415       0.21924678
C        9.23874800      -1.16526000      -0.28188900     -11.44414950     -11.10577689      -1.55737923
N        9.40885800       0.00703400      -0.17326700       9.86734325      16.69452042       1.68825254
C       10.80907500       0.48884300       0.08364400      -0.70091338       7.41175640      -4.68994388
C        8.41442300       0.89498200      -0.45324800       0.98895238      -6.28384917      -0.66194738
H        5.65530800       1.06168000       1.03353000      -1.03177362      -1.31091823      -0.32083038
H        4.24718100       1.44746000       0.06668500       2.91031347      -1.31731734      -0.44824043
H        4.56413300      -0.37729300       0.49324700       2.49514281       1.31349060      -0.47473392
H        5.95025000       1.34317700      -1.45917100       1.34859891       6.46402316      -3.35982428
H        5.55562800      -0.27147800      -1.88870100       2.04128928       2.48602692       3.77632664
H        7.09702400      -2.14289900      -0.76063200       1.62375670       2.30275020       0.82170263
H        9.81100700      -1.94836300      -0.20022100       4.60526225      -5.26232862       0.79223541
H       10.80823100       1.55688300       0.49973800      -0.52405707      -1.68863108       0.18361332
H       11.26571500      -0.13834700       0.69725500       2.84598425      -3.97075797       3.97281777
H       11.43653900       0.69494100      -0.87548500      -1.38976254      -1.27847076       1.14526860
H        8.41641500       1.85434100      -0.28754600      -0.31116171       6.77735038       1.11495572
B        8.55860000      -0.52497400       3.11980300      -0.42060257       1.44048220       0.39842431
F        8.19278200      -1.49263700       2.06274300       0.35838138       0.66107246       0.17643349
F        7.74314200       0.73497200       2.83719100       1.70374796      -2.34110389       0.21069162
F        9.96932000      -0.29848300       3.14749100      -0.81953065       0.29990229      -1.17377008
F        8.28119200      -1.03215000       4.40805400      -0.81486569      -0.01894384      -0.70872555
48
Properties=species:S:1:pos:R:3:forces:R:3 energy=-41272.3877631393 pbc="F F F"
C       -2.81851600       0.27749800       0.27109700       3.21749994       4.15741663       2.99967520
C       -1.93198700       0.24141700      -0.88260200      -0.62493793      -4.94974247      -4.78911373
N       -0.60436400      -0.40157200      -0.62048100      -0.24636547      10.45651067      -0.05464588
C       -0.04403600      -1.55540300      -0.67510600      -8.42378384     -13.28564968      -1.69834275
C        1.13820600      -1.54134400      -0.16889900       9.02459838      -3.51428784       2.49999526
N        1.61901400      -0.24148300      -0.06277800      -2.69254224       0.23032274      -0.01203306
C        3.02333600       0.20338800       0.20549100      -6.83850608      -1.52004998       0.42787941
C        0.46972800       0.44953500      -0.32336400       0.28298042       9.93382926       0.75869917
H       -2.27959700       0.74680300       1.13012500      -0.21363520      -0.94104991      -0.02329160
H       -3.49700500       1.00373900       0.04623700      -3.08985443       2.82630312      -0.94576076
H       -3.35789600      -0.52593400       0.53113400      -1.85896065      -4.58461519       1.24923542
H       -1.87606500       1.15824600      -1.46195200       0.88483342       1.01160159       0.20957117
H       -2.39234100      -0.50034300      -1.64950900       0.53200711       1.11215845       0.96098760
H       -0.87917700      -2.53258600      -0.74090500       3.62963676       3.31313234      -0.03924635
H        1.94263400      -2.27610900       0.03174400      -1.07030155      -0.48671703      -0.30044001
H        2.95680800       1.17469400       0.54977600      -0.54767074       2.72717597       2.10672214
H        3.35758600      -0.49132500       0.92300800      -0.02884936      -1.50991477       1.42431178
H        3.38736000       0.31816100      -0.73383500       2.07500811      -0.93984342      -3.88403942
H        0.55442600       1.80852700      -0.30894000      -0.99372459      -5.74936859      -0.14059099
B        0.63616400      -0.82337600       3.17182900       1.43944342       0.75773455       2.83634584
F        0.23411600      -1.75292900       2.20308800       0.48387838      -0.17996487      -1.21016295
F       -0.08119200       0.43598000       2.94346000       1.19403922      -1.64945836       0.27249747
F        2.14782000      -0.60307000       3.25154800      -3.23893781      -0.30731673      -0.93197053
F        0.28385600      -1.48622500       4.46918100       0.33075387       1.47641895      -1.89611995
C        5.36870900       0.68878000       0.24109000     -12.95497843      -4.18293095      -8.49047189
C        6.19398700       0.41539400      -0.98783600      -7.04551084       9.43131720       0.37930187
N        7.42682400       0.12638100      -0.75877600       8.72266921      -6.04909275       1.76474500
C        7.90586400      -1.17187100      -0.64527500       3.98808290       2.15437930       0.24335353
C        9.23128700      -1.23042700      -0.41724100       1.81728802       5.41761320       1.49300497
N        9.70288700       0.25237900      -0.23689200      -8.33327540      -5.27007445      -2.61300721
C       11.03586100       0.70194200      -0.02643000       0.08890645      -2.77125811       5.10300010
C        8.45217400       0.91040500      -0.59589200       7.93367500       2.35350717       2.08782131
H        5.82682300       1.04726800       0.95014300       6.65563008       4.91048117       9.44005017
H        4.44360900       1.50331500      -0.13913500       5.11544677      -2.08401478       1.66367076
H        4.61812700      -0.21281900       0.63004200       5.94250254       2.89027047      -1.21616871
H        6.25746500       1.41088800      -1.52881300      -0.36641078      -0.45041584       0.43861628
H        5.87694500      -0.14544800      -1.72218000      -3.47139225      -4.85951085      -4.58318763
H        7.41147800      -2.00667400      -0.73506400      -4.54942405      -5.46334594      -0.81448210
H        9.95829500      -1.97617100      -0.23214500       0.87231883      -1.64377156       0.17503118
H       10.95902000       1.66542700       0.41742400       0.45513016       1.64715394       1.00195876
H       11.43528600      -0.12377200       0.72986600      -0.10507997       2.33601613      -1.60920535
H       11.52120700       0.72934200      -0.91943400       2.81084265       0.11227843      -3.77875022
H        8.55030400       1.93949200      -0.51138800      -0.96311026       3.10224702      -0.10161460
B        8.68535400      -0.45350600       2.95846900      -0.25328596       0.53864469       3.45963003
F        8.39289200      -1.42106600       1.95606600      -0.13228771       0.76359069       0.63492220
F        8.03715000       0.84958800       2.79963300       0.60320636      -2.40168909      -0.21514702
F       10.06596200      -0.29005000       3.14465400      -0.00269612       0.09701032      -0.84533550
F        8.32953000      -1.03207900       4.43992100      -0.05184630       1.01854205      -3.43008084
48
Properties=species:S:1:pos:R:3:forces:R:3 energy=-41266.0990094068 pbc="F F F"
C       -2.55989600       0.54034800       0.64074400      -1.12160614      -4.51075721       1.97016266
C       -1.65461800       0.17613900      -0.57634900      -7.59996245       8.22391248      -3.11374436
N       -0.37243700      -0.01760600      -0.29359900       6.17652079      -7.53304611       1.32516493
C        0.09415500      -1.36390900      -0.15525600      -6.29712913      -4.38527345      -2.01249649
C        1.35596000      -1.38029600       0.15115400       4.96002341      -4.37916884       1.13016551
N        1.81946600      -0.09247200       0.22061600      -5.20825283      -0.53574861      -0.17489409
C        3.08465300       0.34028200       0.52194200      -7.35049873      -1.01157804      -1.91436353
C        0.71180000       0.67658400       0.04294400       0.43119505       1.36422944       0.52996022
H       -1.95797000       0.84436200       1.53453400      -0.33772053       0.25443724      -0.71649156
H       -3.32061600       1.22408800       0.31907200      -0.54939895       1.17494491      -0.05539649
H       -3.14361400      -0.42510000       0.96181400       1.20810559       1.88750016      -0.39279025
H       -1.60087300       1.25883900      -1.05717400      -0.46091892      -2.06820532       0.11737158
H       -2.15133900      -0.43595500      -1.36453500       0.67196759      -0.53782133       0.63084048
H       -0.55582300      -2.33808500      -0.34156000       1.24094602       2.84817356       0.43569372
H        2.03596000      -2.28205200       0.24452200      -0.80771709       1.27213653       0.04770298
H        2.96079300       1.38160600       0.97514700      -0.28429253      -1.34455546      -0.14535972
H        3.67349900      -0.42629400       1.10320900      -9.18781054       0.84913209       1.90520675
H        3.75993800       0.32922000      -0.41555900      -6.50814076      -1.91372327      -0.94346182
H        0.71474100       1.68373400       0.01809500       0.25812692       4.76502585       0.02356311
B        0.92136400      -0.73931200       3.53122600      -5.42592213       0.81767595       1.10913744
F        0.41857600      -1.59827600       2.47973200       1.11367363       0.15265035       0.38283248
F        0.13641900       0.58905100       3.21345100       1.48788140      -1.87222190       0.33012116
F        2.23947500      -0.48555500       3.54324600       1.27635375      -0.09202409      -0.05587905
F        0.31150800      -1.25402900       4.81976900       1.67175354       1.12134104      -2.55621913
C        4.98672400       0.51192600       0.51685300       9.67119953      -0.59704336       2.66011681
C        5.83181100       0.24318500      -0.64889800      -0.53586055       3.97977851      -2.79668991
N        7.15162400      -0.16315500      -0.29495700      -3.96632499       3.32717455      -1.40195873
C        7.52141600      -1.35061900      -0.25826400       4.91160067     -18.84928799      -0.03353498
C        8.94416600      -1.58137200       0.01391200     -16.14968232      17.66953285      -1.16455783
N        9.25716000      -0.11368400       0.17768100      12.60354816     -10.46137436       2.18783212
C       10.72211800       0.33629000       0.42223800      -5.06824266       3.10868404       5.70524738
C        8.25856200       0.49054000      -0.13718500      -5.70016007      15.34361484      -1.15665333
H        5.47840700       0.87015400       1.33133600       3.24730513       1.38086320       3.12347335
H        4.20111500       1.16348900       0.32221000       5.09045309       3.58398116       0.87956690
H        4.48789300      -0.41932200       0.88003100      10.07906500       0.90873064      -1.49965684
H        5.96438400       1.20857100      -1.20933600      -0.02925111      -0.49819625       0.00179547
H        5.33972500      -0.44090800      -1.33942300       0.28191256      -0.89024815      -0.48634476
H        6.96891000      -2.34691200      -0.50175100       0.04460133       2.64648388       0.52631646
H        9.53615600      -2.21071100       0.11455800      11.88793351     -13.25356892       2.09187237
H       10.57667900       1.46127600       0.86929400       0.98683318      -3.33163632      -0.82254972
H       11.11724600      -0.43217100       1.11950800       0.23665017       0.59402112       0.09873386
H       11.16512000       0.38734000      -0.47679900       2.71472148       0.06320253      -4.78237990
H        8.22139400       1.57391700      -0.13284500       0.01952839       0.69834823      -0.03214204
B        8.38546300      -0.69045800       3.47379900      -0.08711202      -0.56304890       0.11387137
F        8.09088100      -1.73834200       2.45810700       0.63508164       0.81142630      -0.44309305
F        7.65065500       0.52328900       3.04188600       1.30824261      -1.96128641       0.92136786
F        9.80865000      -0.49968500       3.58149300      -1.42544842       0.32030636      -0.65933668
F        7.95434200      -1.36120400       4.67941800      -0.11375498       1.41181291      -0.88263474
48
Properties=species:S:1:pos:R:3:forces:R:3 energy=-41266.6744984867 pbc="F F F"
C       -2.66597600       0.47165200       0.43487000      -1.79197226       4.11170733      -4.96701320
C       -1.71227300       0.28082100      -0.84083900      -8.85281790       9.91883218      -0.27725797
N       -0.48334700       0.03903000      -0.51320900       6.79435560      -9.67107196       1.03444186
C       -0.03239600      -1.37080600      -0.43315100       2.82706530       4.08460973       0.46878585
C        1.32328200      -1.23974600      -0.21818100       0.54644231      -7.82403663       1.43246084
N        1.65369100       0.05060100      -0.08235400       6.82876753      -1.53058997       0.52772280
C        3.15037400       0.51318500       0.16806900     -14.53415646      -4.72262613       2.60504140
C        0.60782100       0.73350200      -0.30154500      -2.21489664       9.55134887      -0.22755999
H       -2.05879700       0.91627400       1.17652400       0.83997962      -0.14184721       2.26299091
H       -3.37137300       1.36915300       0.04633200       1.27839958      -2.64201359       1.41650905
H       -3.24706800      -0.40629200       0.56505400      -0.65788507      -1.31924167       1.22045642
H       -1.63596400       1.37852800      -1.30897400      -0.75733648      -2.35105190       0.69327336
H       -2.20407900      -0.28631500      -1.54718100      -0.91048233      -2.61707161      -2.44936776
H       -0.50566900      -2.27111900      -0.58311500      -2.48330471      -2.35103649      -0.51280543
H        1.99786700      -2.16742600       0.03749100      -1.10304047       2.46993323      -0.74096021
H        3.03488600       1.44764600       0.72419100      -2.35353098      -0.30427950       0.33904610
H        3.57190100      -0.34953400       0.87856700      -8.99771942       0.31260380      -0.19244908
H        3.66238400       0.52958400      -0.73173500      -1.15602555      -0.74324997      -3.74191561
H        0.72444000       1.82481900      -0.38659100      -0.77792266       0.01434773       0.07003481
B        0.70368200      -0.73207900       3.34356200       2.57373608       4.23778228      -6.49496588
F        0.44760500      -1.55472400       2.06516100       0.52834333       0.67238222       2.11305224
F       -0.03851000       0.58780500       2.92954000       1.50380289      -2.68142755       1.18774657
F        2.22366500      -0.40572200       3.28124800      -3.37236390      -0.79309790       0.02949551
F        0.35130300      -1.24569600       4.48786500      -1.08096145      -1.29146365       2.30413271
C        4.92949100       0.74670600       0.45443600      17.74043120       5.73436616       0.58391312
C        5.91181900       0.56681300      -0.81355700       1.25262525       4.28485595       3.38697434
N        7.29229600       0.02233000      -0.52698000      -3.31654669      14.94936531       0.00080398
C        7.65018700      -1.13942100      -0.37363400       8.16760317     -12.20900667       1.95844501
C        9.03177500      -1.08133300      -0.00877000      -2.76739535       0.72967142       0.07145155
N        9.51537200       0.24647300       0.09719700      -1.43318128      -4.02135064      -0.77148373
C       10.87423500       0.72426300       0.24474900      -6.12964850      -0.19858858      17.50636813
C        8.40998300       0.91249200      -0.09751500      -5.70454720       7.72661239      -1.53851648
H        5.73180800       1.16357500       1.19472500      -2.08503431      -1.28576417      -0.22297203
H        4.23249400       1.52691800       0.24970300       4.60635022       2.06891848       0.51097690
H        4.39799900      -0.10412600       0.60095900       8.16342507      -1.34756250       1.17612772
H        6.08585400       1.58257300      -1.24918000      -0.06588978      -0.58317926      -0.03282577
H        5.50144500      -0.04074500      -1.50361400      -1.97389570      -3.14283005      -3.70342606
H        7.23128000      -2.12584400      -0.57928900      -0.92158871       0.28811400      -0.13572095
H        9.64570700      -1.86333800      -0.04355900       3.57902673      -4.26821487       0.24750966
H       10.88279800       1.70402100       0.84040600      -0.10301130      -1.07819394      -1.35238440
H       11.17926600      -0.05085200       1.03397600       1.03692779       1.01751273      -1.14273231
H       11.28254100       0.72599900      -0.54662500       7.80688069       0.05586084     -13.70726689
H        8.43394800       2.10714800      -0.07333500      -0.77003648      -3.18433273      -0.29688846
B        8.33996200      -0.38447500       3.33103600       3.57789008       2.68304304       4.85877609
F        8.20799200      -1.25360900       2.35347500      -1.29618747      -2.56907144      -3.14704626
F        7.71958800       0.87218800       3.18025900       0.29156348      -0.50794199      -0.70279450
F        9.95027200      -0.21348400       3.32793300      -2.38028271       0.33605084      -0.06901966
F        8.07509500      -0.86335100       4.66676400       0.04394500       0.11708495      -1.56542522
48
Properties=species:S:1:pos:R:3:forces:R:3 energy=-41272.703588061 pbc="F F F"
C       -2.40177300       0.07232000       0.39547700      -5.42769818      -2.51554769       1.95859027
C       -1.51329600      -0.21368900      -0.79442300      -4.57354785       6.44015634      -2.41078867
N       -0.18094000      -0.50172400      -0.48078700      -7.77133419      -6.58015641      -1.73684642
C        0.16922900      -1.81662100      -0.34126600       1.22376591      -3.75841061      -1.21392296
C        1.51382400      -1.74368300      -0.21533400       5.43026502      -3.25557455       3.58762925
N        1.99557400      -0.33958700       0.04566700     -10.69172433      -8.90411856      -2.85418589
C        3.25402900      -0.02376400       0.36404100       0.58086260       5.43779946      -4.75700816
C        0.79942000       0.22936600      -0.34355200       9.83986365      15.05703926       3.42902698
H       -1.86837500       0.48352200       1.23996200       0.63051555      -0.12664203       0.84837206
H       -3.23756200       0.79463800       0.17747600       1.16489852      -0.09765259      -0.50096019
H       -3.10390700      -0.85766100       0.70166100       2.64861449       1.92371204      -0.27364611
H       -1.60070200       0.81987500      -1.30330600       1.30855531      -1.22568857       0.37947016
H       -2.03716900      -0.77503500      -1.55678500       0.39716010      -1.86214137      -0.30115887
H       -0.38430200      -2.73749500      -0.68698500       0.01577031       1.38152499       0.71490733
H        2.20782900      -2.65063300       0.04151300      -1.26422519       2.03775643      -0.74259965
H        3.17973500       1.04415600       0.75774400       0.60102356      -1.53225841       0.20340623
H        3.76850600      -0.70944500       0.95593100      -0.71166621      -2.02216540       2.59205683
H        3.86260100       0.05969100      -0.71013700      -4.09834981      -1.06273367       2.65889777
H        0.83976900       1.38435700      -0.12201400      -1.13639821      -2.30345899      -0.99432782
B        0.92456000      -1.00139400       3.39351900      -0.38653210      -1.44166553       0.64241206
F        0.48447500      -2.07603400       2.31191000       1.28689448       2.08803609       1.19620135
F        0.15684400       0.17336800       3.19180900       0.70277059      -0.76104433      -0.41791772
F        2.34510600      -0.76713500       3.44177100      -1.70976074      -0.28092608      -0.96545024
F        0.54576500      -1.64274200       4.63382900       0.17553804       0.48421036      -1.18472901
C        5.38347500       0.40256300       0.09083700       1.13812825       8.88279758       2.80607203
C        6.13905100       0.31376900      -1.10084400       1.45603738      -1.23258934      -6.62831747
N        7.48158000      -0.15568600      -0.81512700       8.10852195       1.79387972       0.93732459
C        8.13268400      -1.44140300      -0.70976400     -14.70322873      -0.48648883      -3.71134582
C        9.30307700      -1.36245100      -0.35493500      11.06057093       0.08634106       3.32144009
N        9.76504500      -0.01612400      -0.27892200      -2.42171947      -2.36460672       0.28822868
C       11.11835800       0.32305700       0.02128100      -3.75243959      14.00867837      -4.73850515
C        8.65793300       0.74674700      -0.48957200      -3.80424318       0.08614154      -0.89606212
H        5.96661600       0.98680500       0.85989600       0.13749523      -1.64190374      -0.04593101
H        4.61405300       1.27497900      -0.16289100       3.08494988      -1.87705117       0.92946054
H        4.86350400      -0.43564800       0.35461300       2.57108564      -1.95615057       1.37764185
H        6.24758900       1.31926700      -1.52745200       0.35760169       0.33327955      -0.29799853
H        5.72111600      -0.33110400      -2.00838700       0.53151037       1.04811805       2.22939036
H        7.40196000      -2.24230700      -0.88782700       0.80198095      -0.56197427       0.13830226
H        9.96771800      -2.17778700      -0.21348600       1.19241084      -0.99008021       0.34575888
H       11.13982400       1.53995800       0.47750000      -0.28713289      -4.63726984      -0.82423558
H       11.57225200      -0.25276800       0.59661100       5.22135069      -7.14675117       6.81825351
H       11.58014000       0.56787100      -0.91922000       1.34170561      -0.71948050      -1.18833519
H        8.72384000       1.83643300      -0.57164500      -0.44850842       0.17661175      -0.01329927
B        8.70527500      -0.59495400       3.08836000       3.92252711      -0.76405646      -4.40636940
F        8.36871000      -1.61386000       1.94660700       0.80584140       1.13989636       1.13193742
F        8.12125000       0.56877500       2.73378300      -0.94431653       1.74183895      -0.47162062
F       10.24510900      -0.37135100       2.99674400      -2.86238424      -0.69839087       0.09154288
F        8.33419200      -1.12973100       4.22216600      -0.76535463      -1.33794347       2.94174665
48
Properties=species:S:1:pos:R:3:forces:R:3 energy=-41277.0876673493 pbc="F F F"
C       -2.78349200       0.55197100       0.54528700      -4.83901624      -2.33553509       3.45046318
C       -1.98891000       0.45713100      -0.64929700       2.04491717      -7.83655190      -3.48491883
N       -0.53408000      -0.07854100      -0.36925600      -5.97975096       2.70241904      -1.73305776
C       -0.07545300      -1.32316500      -0.29437500      -4.64176812      -8.94670133      -1.57240027
C        1.21734900      -1.40198700      -0.01325800      -2.96222566       8.16466067      -0.46035231
N        1.62965400      -0.03503900       0.10036300      -5.87254036       0.39402028      -0.49038743
C        2.92351900       0.39389900       0.45751800       0.05337321       5.63194914      -5.39581432
C        0.42345200       0.78420500      -0.13662900       7.22547866       2.65694786       1.99471457
H       -2.23713500       0.98533300       1.38654500       0.31101175      -0.24438492       0.53991888
H       -3.52235200       1.29165900       0.24357100      -0.95845116       0.40495711       0.42177527
H       -3.42441300      -0.45807300       0.86280700       2.51284092       3.11021387      -0.88376565
H       -1.89777600       1.32883000      -1.15778800       1.00728083       4.36732208      -1.91125519
H       -2.41802100      -0.28142700      -1.49590600       0.85393584       1.47112262       2.31949388
H       -0.78315400      -2.26745200      -0.49543600       1.71407905       2.74153047       0.61407115
H        1.89566000      -2.03466000       0.17875100       6.03475494      -6.93748406       1.60183379
H        2.91986100       1.44825100       0.83323600      -0.43325705      -0.79964564       0.78663255
H        3.39781600      -0.28052700       1.08461000       1.05487772      -1.78789001       1.66730417
H        3.40664100       0.63068700      -0.64170200      -0.85069216      -1.49295729       2.81944358
H        0.50189400       1.90625800      -0.15827400      -0.62084995      -1.17357560      -0.01019724
B        0.67215300      -0.70263100       3.38717700      -1.78489298       2.86019522       2.74543497
F        0.13370200      -1.47443700       2.28928700       1.58094541       0.35436931       1.24789923
F       -0.13421400       0.66787400       3.21335100       1.70466012      -2.40971716      -0.08828333
F        2.08787600      -0.33589900       3.49945400      -2.61680510      -1.27143478      -1.08020650
F        0.18297500      -1.16916900       4.75080900       1.17325882       0.52771949      -3.36087820
C        5.48434300       0.15291600       0.43163700      -3.38476207      -4.85467176       6.12391420
C        6.25604800      -0.14068200      -0.73805300       4.04458102       5.41450825      -3.99543500
N        7.66690500      -0.55135900      -0.42427600      -2.82523235      10.78332583      -0.43901506
C        8.12327500      -1.69877400      -0.37447900       1.75476736     -17.69518405       0.28485965
C        9.47308000      -1.81644500      -0.07566400      -2.11685938       1.83716454      -0.33652484
N        9.83512000      -0.48033600       0.02300900       0.80650226       1.59578825       1.12735634
C       11.18222700      -0.00665400       0.38272900       1.30133687       3.19561688      -0.10380653
C        8.73888900       0.35344900      -0.11655000      -1.16106008      -1.41804728      -0.27384322
H        6.03190700       0.51555300       1.36852000      -0.15121139      -0.77647272      -1.35623771
H        4.68117000       0.82865800       0.23046700       0.96491181       0.87135035      -0.20753500
H        4.83088400      -0.95793100       0.71486900       3.24801815       4.07504605      -0.46563813
H        6.38578800       0.90941000      -1.30620200       0.15417592      -2.22281501       1.17712437
H        5.88231000      -0.72070100      -1.54704100      -0.97324666      -1.93945023      -0.68907983
H        7.54087200      -2.79029400      -0.44744500       1.09142593       4.06921970      -0.04153134
H       10.08793800      -2.63625700       0.17138900       1.12619416      -1.37778596       0.23461230
H       11.16021900       1.10593200       0.83280100      -0.14369073      -3.00904932      -0.84911190
H       11.65337900      -0.73523100       1.06889100       0.00278530       0.21744981       0.11921580
H       11.71517200       0.05174100      -0.60437400       0.35546123      -0.06138858       0.72078138
H        8.67680600       1.42117100      -0.11832100       0.10543928       1.07973482      -0.00006380
B        8.85933800      -1.01771900       3.38227300      -1.01985698       1.62549657       3.35752116
F        8.51969500      -1.96825100       2.44550600      -0.30853151      -0.40447834      -1.13198162
F        8.07282800       0.30932300       3.11887900       1.67628762      -2.85364710       0.20887358
F       10.24758500      -0.79101300       3.45049400      -0.67092043       0.30149587      -0.50958648
F        8.45400800      -1.58344500       4.75959300       0.39700951       1.37984795      -2.71866661
48
Properties=species:S:1:pos:R:3:forces:R:3 energy=-41263.2431920159 pbc="F F F"
C       -2.21422400       0.44368000       0.44037100      -6.57068926       4.49314486      12.02274846
C       -1.22680900       0.40781500      -0.53408500      -8.64589054      -1.76014354     -10.62083473
N       -0.06583800      -0.16674500      -0.30620600       9.28094642      10.80540530       2.39686806
C        0.40898500      -1.30533000      -0.21736400       6.79437731      -9.94279066       1.12873675
C        1.83172500      -1.30927100       0.10358000      -3.95032848      -6.84320833      -0.57255851
N        2.21445300      -0.07122400       0.21387700      -6.68275412       3.63016505       0.64393966
C        3.44991200       0.42279200       0.58719500     -12.13019270       1.98338699      -5.16167400
C        1.12697800       0.76487300       0.03729700      -3.17578596      -7.15035793      -0.82135282
H       -1.63688600       1.03593300       1.37942300      -1.88288985      -2.39621778      -1.98398128
H       -3.02223200       1.31462000       0.28213400       1.77724912      -2.52820716      -0.53278929
H       -2.85501200      -0.46950000       0.93445900       2.57178031       2.08215399      -1.96348137
H       -1.30162800       1.36351200      -1.06087400       1.53880560       0.53557974      -0.15554046
H       -1.78865600      -0.33420400      -1.34848900       1.88101204       1.92213399       1.20823870
H       -0.13185800      -2.17840500      -0.42078200      -1.37131655      -2.01635521      -0.32123409
H        2.44475700      -2.21602300       0.31273400      -0.26058556       0.80101970      -0.21500307
H        3.34158500       1.46975100       0.91175500      -1.77249712      -0.98643924       1.47579867
H        3.91623400      -0.25902700       1.19722200      -5.65267230      -1.98661272       6.09470647
H        3.98127400       0.52838200      -0.45380900      -6.08124963      -2.58302917       0.15664930
H        1.02677700       1.74751500       0.02435800      -0.23431542       5.90714647       0.00955279
B        1.21064000      -0.61012600       3.49184800       2.17627480       2.10665926       4.65854145
F        0.90691200      -1.35570400       2.46173200      -0.31617684      -4.43368834      -4.15915480
F        0.49933100       0.55104900       3.23644000      -0.59934156       2.26293416       0.59678955
F        2.68872700      -0.26267700       3.52280800      -2.40233371      -0.87636779       0.03676056
F        0.73366400      -1.24120000       4.76169200       1.18013644       0.99822068      -1.88097019
C        5.22280300       0.67969200       0.39552200      12.89825695       7.73582782       4.81578260
C        6.15829100       0.58191800      -0.79635800      -8.86996610       4.76687880      -2.83156983
N        7.38313500       0.24083100      -0.51604300      10.26842332      -3.78627869       2.40278750
C        7.85665600      -1.04172600      -0.34773100       1.49957586      -4.51864472      -0.11010820
C        9.23606000      -1.06512800      -0.13309900      -3.22120347      -4.82764052      -0.09911709
N        9.56554900       0.18756200      -0.14189800       5.83096883       5.72999225       2.60917265
C       10.92107000       0.70373800       0.33058900       0.06025700      -6.55035225       1.76625514
C        8.51775800       0.99202300      -0.18621500      -3.29738840       0.96027399      -1.11301157
H        5.90124600       1.21167600       1.31865500      -1.49593620      -2.37258410      -2.43284237
H        4.41400900       1.55821300       0.19741800       8.78408618      -0.15820382       0.80305661
H        4.63439900      -0.25088900       0.65229800      12.91469582       1.20592986      -2.85971497
H        6.21589800       1.59153600      -1.26824600      -0.27647770      -0.30559875      -0.17022963
H        5.64349800      -0.08302700      -1.48389500       0.34070433      -0.71358216      -1.17763619
H        7.41756600      -2.01126200      -0.52725100      -1.62826407      -0.08126934      -0.12380409
H        9.91957800      -1.82759000       0.20416100       0.27942598      -0.81330214      -0.23919177
H       10.94759700       1.62201000       0.77745200      -0.77514215       3.72389216       1.74593846
H       11.34681500      -0.11048800       1.11386000      -1.15847820       2.19404985      -1.98909301
H       11.48182600       0.70691900      -0.54866500       2.15601977       0.05787707      -2.21319593
H        8.54065300       2.01495000      -0.17835500       0.13834646       3.65738934      -0.02767170
B        8.55147900      -0.44278000       3.37503100       1.52272948       0.98374098       2.06484026
F        8.14851600      -1.26659000       2.30864500       0.05352760      -0.82609875      -0.20786866
F        7.98447300       0.82611500       3.15105200      -0.69178436       0.46794543      -0.04151084
F        9.99223500      -0.20196400       3.38560700      -0.69701621      -0.71883251      -0.59346463
F        8.24109700      -0.93626000       4.72108100      -0.11169845       0.18835522      -2.00617798
48
Properties=species:S:1:pos:R:3:forces:R:3 energy=-41272.9704231555 pbc="F F F"
C       -2.83617600       0.59267000       0.52375900      -2.72471614      -1.53819736      -3.41768028
C       -1.87846200       0.39334000      -0.82825800      -2.80314964       1.55743253       7.81969972
N       -0.64762000      -0.08916500      -0.39023900       7.38218097       2.91155000       0.79441381
C       -0.18358300      -1.35352100      -0.32429600       3.20567292      -3.52592624       1.29410459
C        1.15696400      -1.42654600       0.14387700      -3.06602274       6.00912132      -0.94266370
N        1.66982200       0.04116400       0.12828400      -7.76117165      -5.89720753      -0.29243424
C        2.86917900       0.62912900       0.38306400       2.89330378     -11.61248822       0.05695572
C        0.58872700       0.77161900      -0.15304200      -6.39058649       2.25471635      -1.07652707
H       -2.26748500       0.95026900       1.33402900       1.37676532       0.94566314       1.53774779
H       -3.65790700       1.33704600       0.22847600       1.15519782      -1.06318863       0.63459644
H       -3.32902600      -0.38701100       0.84439200       0.72334578       1.23163294      -0.59864577
H       -1.82695900       1.34374100      -1.15632800       0.88907640       4.55159621      -2.09282860
H       -2.32877100      -0.17760800      -1.49238600      -2.85003196      -4.07195801      -4.35019266
H       -0.75919700      -2.26194600      -0.49005100      -0.61783813      -0.05719725      -0.15946974
H        1.79915800      -2.21935600       0.16386200       2.58924114      -2.95436735       0.31157986
H        2.85666700       1.48800900       0.79069200      -0.49121027       8.41834158       3.89775531
H        3.33531000      -0.22879400       1.15066000      -1.31761275       3.30205618      -1.64010976
H        3.38271800       0.56816200      -0.56416000      -0.85478948      -0.13667182      -0.55979955
H        0.44259100       1.89471300      -0.02912700       0.46237422      -1.50937430      -0.16938873
B        0.45804400      -0.57181800       3.43203100       5.01915588      -3.46649250       2.67495946
F        0.24132700      -1.56491700       2.45494600      -0.00544208       0.47895974      -0.63821418
F       -0.01962900       0.63543500       3.26867500      -1.49928831       2.75997746      -1.04300701
F        2.14864200      -0.38309300       3.41402800      -3.03703856      -0.27793746      -0.51854919
F        0.23997100      -1.12902800       4.72597000      -0.10525162       0.54478480      -1.18786282
C        5.26665100       0.64269900       0.10612000      -1.73237886      -1.80548833       4.02516781
C        6.10746500       0.19192500      -1.01642100       2.46024294       7.67693280      -4.64434104
N        7.58860600      -0.13152300      -0.73395200     -15.41014539       2.94327721      -3.21778526
C        7.90470700      -1.33553300      -0.72980700       7.30645863      -7.55253592       0.84780825
C        9.27825400      -1.26912000      -0.42162200      -6.76541964      -4.89434018      -0.87801341
N        9.62826000      -0.08290300      -0.21772900       0.97935074      10.52400837      -0.33129429
C       10.95647800       0.50931800      -0.05322000       3.92974678      -7.24468087       2.56294410
C        8.45806300       0.70862700      -0.50248800      10.58702413      11.62536601       3.27354495
H        5.92927100       1.01241200       0.97270500      -1.07512761      -0.18424313      -1.27195104
H        4.36073800       1.32977200      -0.22286000       5.61212681      -0.27807377       0.73880707
H        4.66652500      -0.27985900       0.47800600       2.77344256       1.75608494      -0.23373016
H        6.18477700       1.33596200      -1.52096700       0.66648580      -3.42922336       0.62374012
H        5.73552500      -0.33922800      -1.89980100      -0.21313699      -1.35135937       0.47425962
H        7.39880500      -2.20846600      -0.87931700      -2.47911414      -2.64039970      -0.55429439
H        9.84190600      -2.02740900      -0.29072200       5.38314593      -6.91544713       1.05842634
H       10.99885600       1.41839300       0.41622700      -0.60316449       3.57078332       1.65918503
H       11.53160200      -0.31042600       0.73652300      -1.89288527       2.96639552      -2.38071844
H       11.60971500       0.48023000      -0.92851400      -0.29974592       0.13487221      -0.95721038
H        8.64164600       1.91816400      -0.51347500      -1.58174425      -3.85097357      -0.06185542
B        8.69484100      -0.68652200       3.09501000      -2.07563155       0.98522502      -0.81626050
F        8.36633000      -1.62815600       1.95687200       0.28746357       0.60530744       0.94673402
F        7.98642100       0.57521500       2.76702800       0.00438431      -1.41751985       0.20920380
F       10.01272100      -0.37994100       3.03832900       2.30893161      -0.00177900      -0.30327884
F        8.35335700      -1.18102100       4.37455500      -0.34009918      -0.08019141      -1.08690200
48
Properties=species:S:1:pos:R:3:forces:R:3 energy=-41271.0650764644 pbc="F F F"
C       -2.89348400       0.49355300       0.53946200      -8.95203767       3.29787024       6.83733964
C       -2.12284800       0.36358900      -0.61871900       4.31334990      -0.00962140       0.86542735
N       -0.73420300      -0.01652200      -0.28203800      -3.12583867      -5.86795252      -1.41256979
C       -0.28563400      -1.35518400      -0.23326500       3.97663838       2.88210100       0.67153422
C        1.10238600      -1.29214000       0.10468300      -7.61170812     -16.75271583      -1.37970467
N        1.29017000      -0.11387500       0.10435800      19.74210959       9.75847347       5.08857869
C        2.73246600       0.46117100       0.53500400      -0.49656104      -9.65101789      -3.88622896
C        0.37597900       0.64191000      -0.10802300      -8.08602618      16.94422894      -1.70027616
H       -2.46193500       0.98280800       1.45957800       0.52205021      -0.96054796      -0.97101627
H       -3.82380800       1.24967900       0.37708500       2.63733265      -1.40189369      -0.39396916
H       -3.55936900      -0.33553800       0.85810700       1.41511047      -0.68677230      -0.00101470
H       -2.03080000       1.28782700      -1.01095100       0.45818094       4.39485514      -2.72477646
H       -2.46653700      -0.30700200      -1.28609300      -1.77228411      -3.27296101      -3.48641583
H       -0.82311800      -2.17129000      -0.24165100      -4.22611497      -5.28115154      -0.28694349
H        1.64865900      -2.19253500       0.31686000       1.21843801      -0.03503851       0.26982902
H        2.67696900       1.35483200       0.92256100      -0.77481541       6.68346773       2.98923638
H        3.26379700      -0.32843900       1.22494400      -2.26037294       1.88259670      -0.87969574
H        3.30885800       0.42138000      -0.43019700      -1.38327789       0.33485382       0.70316680
H        0.32435000       1.80176900      -0.09428400       0.79188169      -2.35636104       0.07639416
B        0.51827100      -0.69433500       3.41484100      -2.44631479       3.99303051       6.75457101
F        0.13827200      -1.58474600       2.53716900      -0.39719999      -2.35439897      -3.03882948
F       -0.28508500       0.59976700       3.33346000       1.27450470      -1.81043392      -0.78759111
F        1.84519600      -0.38899800       3.61663900       0.66094712      -0.22445361      -0.93351140
F       -0.02794000      -1.15155900       4.82969400       0.95049967       0.45291174      -2.37139172
C        5.29938000       0.44434700       0.33834800       9.95841840     -11.05350474       2.27588220
C        6.37029200       0.19034800      -0.96068000      -3.64295761       2.07793216       1.53060718
N        7.81333000      -0.25881900      -0.64592300     -23.14986664      -4.32583210      -6.13219013
C        8.07507500      -1.50213100      -0.49969900      -1.91180949      -6.63187713      -0.93434092
C        9.31603300      -1.55973600      -0.25402900      13.04172319      -0.20088218       4.05315905
N        9.82560200      -0.16162600      -0.04374700      -7.31151286      -3.19279171      -2.24978730
C       11.10688600       0.34605500       0.13655600       4.86581144      -0.86511081       1.93948381
C        8.61428000       0.53219400      -0.39454000      19.19009445      17.19270779       6.12225021
H        6.09818700       0.75031500       1.07018900      -1.57587559      -0.15559832       0.61045517
H        4.70808900       1.12364200       0.07041600      -5.41774805       7.34752192      -2.49272464
H        4.68772900      -0.58256100       0.61808900       3.24147531       3.21466685      -0.71902815
H        6.26333500       1.22968400      -1.39685900       1.56195286      -1.00462047      -0.13579888
H        5.82616500      -0.48074200      -1.62146000       0.64892486      -0.94934000      -0.72925036
H        7.47888000      -2.32775200      -0.61606600      -2.62989389      -2.17550493      -0.60910513
H       10.17066100      -2.29928700      -0.07007200      -2.06045982       0.39197143      -0.35270750
H       11.02563200       1.36810000       0.58650400       0.47057330      -0.58301495      -0.12253004
H       11.62609600      -0.44687800       0.84830600      -0.73263870       2.24138355      -1.03382864
H       11.69055600       0.32761500      -0.81815800      -0.07452866       0.48314326       0.21929851
H        8.67246000       1.67231500      -0.29247900      -0.96651167      -1.83664362      -0.50279023
B        8.78509000      -0.80419000       3.26480600       1.75369733       3.76544208       1.81499262
F        8.51545300      -1.69763200       2.29243800      -0.49262933      -1.17502920      -2.17111192
F        8.04403400       0.56671100       2.99240400       1.54398991      -2.65030780      -0.04366564
F       10.28394100      -0.54411400       3.30028900      -2.79372186      -0.13167812      -0.33345684
F        8.35253200      -1.26744800       4.50647800       0.03655417       0.25236005      -0.01062617
48
Properties=species:S:1:pos:R:3:forces:R:3 energy=-41262.2424910026 pbc="F F F"
C       -2.60327600       0.31198000       0.48493700      -6.05453634       5.13267947      12.96163424
C       -1.69179100       0.26674600      -0.45879300       2.24563824      -2.23201700     -16.42819935
N       -0.38323600      -0.27981200      -0.31237000       3.78267145       1.38301693       0.52351802
C        0.10941700      -1.59007100      -0.39643800       4.06505269       2.48316933       2.07573455
C        1.44869300      -1.41429600       0.13006200      -1.16764764      -9.12493882      -0.93573860
N        1.82245300      -0.11264500       0.14061200      -0.91569518      -4.33503910       1.24286207
C        3.07669100       0.29044100       0.51916600      -7.58120489      -1.71899873      -6.47151762
C        0.74742900       0.53468700      -0.07746900      -6.78948988       5.90440697      -0.68356587
H       -1.96154900       0.79944400       1.40743700      -2.03703255      -1.61613960      -1.49127248
H       -3.31352500       1.19136200       0.30935400       0.41887951      -1.69892173      -0.01435859
H       -3.14692800      -0.53900400       0.88919700       0.06458341      -0.65001268      -0.24036705
H       -1.70131400       1.25160700      -1.03079400       1.17175465      -0.74853335       0.88377998
H       -2.10052400      -0.46346300      -1.44148900       0.97462007       2.17233991       2.98725613
H       -0.43948800      -2.47362400      -0.38543600      -1.69764467      -2.04923315      -0.18897636
H        2.15117400      -2.35690500       0.12002400      -0.97796597       2.57145505       0.38054542
H        3.10643900       1.26136000       0.87644500      -1.45325186       2.72557856       1.60498103
H        3.56150900      -0.40101600       1.10901500      -3.85100718      -1.15792941       3.06369969
H        3.74154900       0.23874600      -0.54660000      -6.53514788      -1.93618380       1.14346252
H        0.84379800       1.61640500      -0.04587600      -1.09805864       0.57647599      -0.11344194
B        0.97217700      -0.80548300       3.57284200      -6.66626900       2.13525285      -6.99402324
F        0.45892000      -1.75233200       2.40832800       1.90165418       1.11814199       0.55125416
F        0.11303300       0.45556700       3.13751100       1.35449529      -1.53458364       0.36563615
F        2.19883200      -0.48292600       3.50464100       5.89299788       0.94047237      -0.64880656
F        0.47958100      -1.24973200       4.65330900      -1.93434245      -2.38786902       5.36681183
C        4.91779000       0.47306200       0.34241200      22.21574163      -8.15365882       7.47728480
C        5.98415800       0.10747900      -0.91621800       2.93936081      12.86997183      13.65141557
N        7.32557400      -0.18167200      -0.51620000      -0.85580091       3.96341571       0.40848692
C        7.59006200      -1.46974100      -0.27900200       5.51351998      -4.14258133      -0.21404564
C        8.99207900      -1.42420600      -0.07323800       2.48349271      -4.24428199       1.56845644
N        9.37448900      -0.11121300       0.02700700       8.82611717      -2.37101417       2.21360557
C       10.81448200       0.39929400       0.32434100       1.69587438      -7.66550967      -3.61870962
C        8.47900900       0.75012700      -0.20233100      -8.61092371     -13.97331413      -3.21372671
H        5.70763800       0.78154900       1.34722900      -2.17242709      -0.43455272      -3.64141849
H        4.25349000       1.12174400       0.16427700       0.70570260       7.90146330      -0.84904483
H        4.51521100      -0.57767800       0.77301000       7.33858847       2.72377943      -2.30683823
H        6.04844400       1.07932000      -1.19630900      -0.01100008       3.79740640      -3.19555719
H        5.66569900      -0.50822000      -1.44918400      -6.36171493     -11.95860753     -11.02127670
H        7.15204400      -2.45673800      -0.58506000      -0.78183061       1.43690607       0.30033895
H        9.87875300      -2.20218400       0.09465000      -2.75763684       1.60793151      -0.41615393
H       10.73028400       1.36865200       0.69716700       0.28252282       2.63845660       1.22066221
H       11.32881800      -0.47320000       0.95758900      -1.31587524       2.74431061      -0.56745483
H       11.34760000       0.23744600      -0.75016400      -1.09104599       1.40834698       2.69450470
H        8.40300900       1.63009800      -0.14704700      -1.16042575      15.83693295       0.96064463
B        8.58124400      -0.87336900       3.25870200       0.07116670       3.63912788       5.37303740
F        8.16641800      -1.58138200       2.23115600      -0.26454758      -3.78122841      -3.01150942
F        7.83907700       0.36113700       3.05562900       0.05045937       0.87553292       0.23346452
F        9.95478600      -0.55114800       3.39316900      -0.36581764      -0.71240670      -0.77853493
F        8.12081700      -1.32686400       4.62146000       0.54957550       0.03432090      -2.21629127
