48
Properties=species:S:1:pos:R:3:forces:R:3 energy=-41279.2283760364 pbc="F F F"
C -2.690887 0.270284 0.589523 -4.19990671 3.11402845 4.62810109
C -1.857267 0.168533 -0.557959 1.54374129 0.74990744 -6.73680023
N -0.460134 -0.233426 -0.277035 -1.49498173 -1.89407105 -0.57683857
C -0.093962 -1.549676 -0.274350 7.47963960 0.45839114 1.63335110
C 1.346552 -1.552359 0.067543 -5.66485443 0.13273114 -0.44332104
N 1.658309 -0.190458 0.174857 5.04690364 -4.35377763 1.32465239
C 3.008350 0.225229 0.515565 -0.39765979 -3.61388849 -3.40958031
C 0.627249 0.533622 -0.027382 -5.19717097 5.14480614 -0.64386972
H -2.005302 0.715146 1.395403 -1.48220110 -1.17468377 -0.18442231
H -3.507565 1.102420 0.389578 1.70021449 -1.86419462 0.41166208
H -3.274262 -0.658250 0.844217 1.07759718 0.67789945 0.29612788
H -1.695128 1.164252 -1.073704 -0.59436618 -0.65132730 0.39552540
H -2.266152 -0.544483 -1.359756 0.70463751 0.81502393 0.97416642
H -0.599751 -2.434900 -0.353502 -2.76105261 -2.61733975 -0.52056635
H 2.019725 -2.362228 0.232454 0.98242016 -0.82654669 0.18164895
H 3.027811 1.166453 0.911410 -0.15113084 3.59086287 1.98772522
H 3.473038 -0.553777 1.143067 -1.03605449 0.60152949 0.54626377
H 3.658978 0.237171 -0.431351 -3.70903498 -0.57897538 0.78007938
H 0.533131 1.596464 -0.023176 0.29137791 1.32154461 0.14293515
B 0.745332 -0.825590 3.553889 -1.85922920 -1.38646685 0.29900089
F 0.364441 -1.802521 2.486510 0.75321425 0.07138792 -0.23682892
F 0.005145 0.315508 3.219083 -0.27684259 0.62639962 0.10462551
F 2.085770 -0.592243 3.536351 1.61663301 0.24176777 -0.35794515
F 0.354217 -1.427607 4.797777 0.03375228 0.54572767 -0.88690037
C 5.429377 0.133971 0.305307 -2.62456709 0.09044726 -0.30103922
C 6.247666 -0.030247 -0.923830 -0.66234877 3.37397421 -2.68990092
N 7.572150 -0.402097 -0.631775 3.96520983 -1.68468484 0.83738497
C 8.045004 -1.680734 -0.511974 2.35851804 -2.19520019 0.15562685
C 9.431276 -1.691445 -0.252274 -6.61428110 -4.91012404 -0.91750521
N 9.783747 -0.472609 -0.197667 -0.02165749 8.72185960 1.57482886
C 11.059009 0.056316 0.201044 6.39336121 1.37269437 -1.89220686
C 8.659080 0.357420 -0.291856 1.05102192 3.88311464 -0.24873099
H 5.965180 0.635685 1.066439 1.36651178 0.08231521 1.85733976
H 4.618229 0.887462 0.008283 3.76513521 -0.70998666 0.94812745
H 4.868828 -0.839265 0.599267 2.65149479 1.87610847 -0.25309909
H 6.379606 0.960724 -1.481059 -0.57758818 -0.89596658 0.69214331
H 5.866107 -0.719224 -1.661851 -0.65578772 -0.93209749 -0.53350339
H 7.485784 -2.535040 -0.684544 -1.92860953 -2.16664318 -0.43343657
H 10.029981 -2.493301 -0.078897 2.50118338 -3.23683661 0.58680230
H 11.159583 1.144408 0.637343 -1.16918478 -2.44571043 -0.47245449
H 11.665099 -0.717929 0.816942 -1.37639842 1.38819576 -0.55989201
H 11.633280 0.124315 -0.856494 -0.81253686 -0.00981669 2.58185191
H 8.744409 1.465440 -0.412749 -0.15642323 -0.85091849 0.18417488
B 8.760619 -0.982133 3.248233 2.12549273 0.35330827 1.67357211
F 8.577091 -1.770368 2.156437 -0.83597388 -3.40628068 -3.00855303
F 8.060611 0.136032 2.981238 -1.51081028 3.35836393 -0.29321466
F 10.186473 -0.774527 3.190731 0.54588881 0.49756286 0.44410725
F 8.408030 -1.489603 4.489807 -0.20009608 -0.72916068 0.34094327
48
Properties=species:S:1:pos:R:3:forces:R:3 energy=-41276.2144650898 pbc="F F F"
C -2.760268 0.335882 0.201628 -1.11215251 -3.59468851 3.62184026
C -1.943365 0.076957 -0.996880 5.59887932 7.95902720 -0.73121014
N -0.426514 -0.330208 -0.622256 -12.44771595 10.14288830 -2.84828418
C -0.165647 -1.520885 -0.570928 6.12701317 -13.76419656 0.56640839
C 1.225294 -1.551251 -0.319724 0.01818508 -4.01387861 0.99351554
N 1.645157 -0.273685 -0.242467 -1.67407059 1.77247816 0.83718109
C 2.896367 0.252115 0.204134 0.40517484 -0.88313316 -6.80296574
C 0.547474 0.507703 -0.398402 2.13317326 2.14452187 0.47209343
H -2.116587 0.747085 1.036698 -0.51746397 -1.06857521 -0.43677459
H -3.481065 1.093708 0.046147 -1.55554013 1.21741667 -0.78244758
H -3.328906 -0.676816 0.453263 1.37292236 2.59310429 0.25802836
H -1.714614 1.213922 -1.473608 -0.75599802 -3.60031549 1.02141459
H -2.321539 -0.482370 -1.784713 -0.90432640 -2.48618916 -2.08330779
H -0.724925 -2.445655 -0.748182 -0.68939960 0.60193757 0.04035885
H 1.916020 -2.373130 -0.128893 -0.02658927 -0.29076407 -0.10286844
H 2.997118 1.244489 0.595821 -1.85265382 0.75295659 0.89515860
H 3.324545 -0.523620 0.750893 -0.44603939 -1.20958670 1.75777858
H 3.453788 0.237205 -0.860241 -0.72981318 0.37705447 2.70520690
H 0.593567 1.547539 -0.393553 -0.44931942 2.51084951 -0.02963272
B 0.622309 -0.876885 3.200589 1.34662271 2.01585454 0.67085762
F 0.339281 -1.711884 2.072116 -0.30456868 -0.76049237 0.00174270
F -0.089589 0.368749 2.924102 0.53605488 -0.65912241 -0.07375747
F 2.071069 -0.670671 3.169984 -1.37950181 -0.02898527 -0.16783011
F 0.261601 -1.279721 4.519922 -0.05548935 -0.46410377 -1.40752010
C 5.141405 0.419657 0.669813 1.52211526 1.17583208 9.65471528
C 6.037196 0.288273 -0.383934 1.09524755 1.64739395 -9.45452375
N 7.381457 -0.174565 -0.255153 1.06454525 0.81954229 1.46177190
C 7.822215 -1.473304 -0.100256 1.96209117 1.49878758 -0.22685631
C 9.140132 -1.406646 0.141521 2.18746203 0.27111456 1.37164072
N 9.500350 0.002808 0.270834 6.99516492 -6.14814600 2.42069102
C 10.856274 0.482612 0.786825 3.41096488 -6.43477520 -7.06206149
C 8.431745 0.642503 0.120776 -5.70450768 8.62487351 -1.04009683
H 5.855397 0.834054 1.561373 -2.20773669 -1.24137075 -1.59525836
H 4.453337 1.241289 0.466944 1.31036049 -0.18243215 0.46652471
H 4.606090 -0.537056 1.026154 2.92976545 1.93922099 -0.14230411
H 6.140369 1.286628 -0.976006 -0.06044867 -1.28850697 1.32548268
H 5.672046 -0.357526 -1.205197 -0.55629855 -0.34211741 -0.00749180
H 7.288248 -2.327883 -0.212056 -2.69899157 -3.27233131 -0.56090400
H 9.831048 -2.201852 0.365756 0.68207940 -0.45949027 0.05748850
H 10.982252 1.465908 1.099308 -0.53723053 2.78964879 1.70239071
H 11.339750 -0.429524 1.369003 -1.23486072 2.55394252 -0.54174023
H 11.478715 0.452400 -0.414372 -1.66659843 0.28448885 4.67989343
H 8.544992 1.783860 0.065786 -1.25623927 -1.61676862 0.07506410
B 8.573791 -0.700035 3.669466 0.22880942 0.07988747 0.55269698
F 8.248615 -1.636648 2.583634 0.32751230 0.76088029 0.62141224
F 7.903685 0.600797 3.300036 0.75479455 -2.17290419 0.73067014
F 10.001247 -0.460346 3.696652 -1.51626688 -0.22287395 -0.25980961
F 8.182443 -1.346150 4.958871 0.32176840 1.68725780 -2.60335987
48
Properties=species:S:1:pos:R:3:forces:R:3 energy=-41269.1265574431 pbc="F F F"
C -2.500607 0.277016 0.636502 -1.10833945 -0.42069291 0.15734482
C -1.514604 0.109352 -0.557888 -4.06019187 -6.43500948 1.51799201
N -0.162843 -0.341920 -0.242005 -10.27983252 -3.77101658 -2.43995957
C 0.147569 -1.638868 -0.244270 4.53292995 -7.05559472 1.31569525
C 1.565503 -1.682860 0.132910 -13.52819145 13.35349488 -2.13121936
N 1.896218 -0.267104 0.237133 3.30519907 -5.70005515 0.63796350
C 3.334194 0.205293 0.427354 -12.27840865 -3.47578863 5.13987389
C 0.819024 0.380304 -0.057831 4.99998500 14.14672980 1.90276991
H -1.823428 0.693262 1.403075 -1.01333839 0.03744079 0.86528071
H -3.304167 0.999178 0.289308 1.08793522 -0.42430075 0.64498624
H -3.088727 -0.674723 0.960213 1.78801380 1.54261596 -0.46909016
H -1.483825 0.938443 -1.068637 0.77085932 6.62882958 -3.48011776
H -2.015880 -0.609479 -1.267773 0.99472907 0.08164482 0.42608290
H -0.500453 -2.582108 -0.318130 0.50937397 2.08161041 -0.06662177
H 2.120094 -2.365891 0.253422 9.99292966 -11.86740523 2.16058372
H 3.251971 1.136682 0.985089 -0.82271756 0.45965388 0.23259219
H 3.763375 -0.584271 1.185551 -5.29322799 1.30720004 0.72294484
H 3.811143 0.163214 -0.470135 -2.54380981 -1.08374473 -4.56035318
H 0.823043 1.558297 0.035684 -0.40920731 -2.78222922 -0.47214152
B 0.876489 -0.941483 3.605300 4.18246550 3.12190599 -6.73195443
F 0.558093 -1.894598 2.470733 0.65719924 1.07374075 0.30228924
F 0.270325 0.305782 3.359202 -0.42027912 -0.29072054 -0.28329586
F 2.387977 -0.649092 3.573942 -1.89880225 -0.50719722 -0.83622892
F 0.649470 -1.490584 4.706680 -2.11500950 -3.30597150 6.53533328
C 5.287947 0.410010 0.325254 1.78019448 1.14874767 1.41506382
C 6.155876 0.191249 -0.929934 -6.90435787 8.07577555 1.10082629
N 7.361515 -0.182696 -0.548931 7.96875105 2.23696625 0.75849630
C 7.880225 -1.407501 -0.567546 -5.05497805 -5.02174082 -1.13374423
C 9.092138 -1.400346 -0.217306 12.80827653 -3.21667046 2.88439797
N 9.620339 -0.069688 -0.081007 -2.98663391 -2.45261835 -0.37596352
C 10.972787 0.401096 0.244950 -1.33986107 -0.43164064 -5.04359847
C 8.478757 0.650804 -0.309587 -0.61695152 -0.37722946 0.26685874
H 5.833656 0.862579 1.176571 0.57236202 -0.91005353 -0.09497855
H 4.424845 1.212543 0.104103 7.40369678 -0.03139724 0.35321207
H 4.536796 -0.534266 0.540829 11.33136594 2.29822298 -1.19420553
H 6.060675 1.239975 -1.333893 1.43260910 -0.88848611 -0.66333240
H 5.657893 -0.399403 -1.581632 -1.69781327 -3.31169852 -3.15242069
H 7.360712 -2.335129 -0.567505 -1.41642591 -0.84933351 -0.57101934
H 9.895399 -2.260678 -0.082224 -2.41668399 1.83637697 -0.31910777
H 10.827234 1.341703 0.638991 0.35458789 3.23917326 1.57665000
H 11.441749 -0.288996 0.817213 1.92886556 -2.87055191 3.45941423
H 11.508886 0.375235 -0.726533 0.31266803 0.78660119 0.11277182
H 8.515733 1.668462 -0.255402 -0.61999324 3.96013390 0.06196935
B 8.590784 -0.741047 3.190231 0.88181298 1.45575979 3.07499544
F 8.254177 -1.611210 2.163647 -0.09745535 -0.32360673 -0.42432539
F 7.936157 0.544188 3.071278 0.29126217 -0.73429464 -0.76837476
F 10.019617 -0.544145 3.312089 -0.87616121 -0.16778293 -0.88320417
F 8.208132 -1.203716 4.538516 -0.06757562 -0.16621647 -1.53315689
48
Properties=species:S:1:pos:R:3:forces:R:3 energy=-41279.7295694650 pbc="F F F"
C -2.708846 0.452127 0.787101 -3.93242221 4.74799868 0.72227036
C -1.881286 0.348572 -0.458433 -2.14840345 1.49688103 -1.76989393
N -0.608292 -0.185123 -0.176196 5.02117534 6.22652695 1.65716448
C -0.139310 -1.374459 0.050540 3.53053879 -8.74489237 -0.37114856
C 1.292551 -1.389653 0.274255 -6.44584580 2.49690368 -0.59509359
N 1.606624 -0.057489 0.371934 1.26211643 1.29457292 0.73833166
C 2.995347 0.434187 0.722226 -1.91248141 -3.96762446 -3.33904792
C 0.486502 0.721616 0.261045 -2.23434347 -0.35891934 -1.24895051
H -2.166609 1.015442 1.605675 -0.22815928 -1.68522306 -0.30715507
H -3.503216 1.277096 0.504693 1.31556682 -1.65638422 0.47922625
H -3.372917 -0.386413 1.022948 0.89766116 -0.65263029 0.65077708
H -1.759757 1.389667 -0.902451 0.11033443 -1.25639952 0.24379882
H -2.312568 -0.325079 -1.200940 -0.69605057 -0.12210436 -0.56214264
H -0.629286 -2.361727 -0.201378 -0.18230612 1.36928520 0.41752133
H 1.820860 -2.232046 0.466275 2.87139991 -3.12755109 0.82239585
H 2.975628 1.411650 1.032353 -0.39310991 3.41308560 1.94266228
H 3.282952 -0.340694 1.457929 0.62910924 0.71444874 0.22521295
H 3.540597 0.460798 -0.276427 -1.25339894 -0.89250145 1.29182116
H 0.473848 1.806657 0.153744 -0.04847812 0.21116307 -0.09396792
B 0.646337 -0.613297 3.711538 2.88079894 -2.00352501 1.44101882
F 0.349916 -1.605508 2.668586 0.31081065 0.22382911 -0.11179967
F 0.030779 0.539099 3.411447 -1.15694045 2.24671742 -0.87166036
F 2.133154 -0.418355 3.779505 -2.01355011 -0.38145195 -0.67093402
F 0.232188 -1.125178 4.976508 0.02103786 0.00506627 -0.81356641
C 5.581472 0.530736 0.483735 -3.59520211 -2.85741548 4.90306275
C 6.404169 0.268540 -0.662771 0.86868847 5.41015006 -5.10156433
N 7.724116 -0.091509 -0.415888 8.62871137 -3.95507616 1.60836389
C 8.272232 -1.521422 -0.354273 -5.80565835 6.21557954 -1.51375129
C 9.484145 -1.424770 0.000630 6.40883210 -0.43106598 1.89947113
N 9.949234 -0.097849 0.086085 1.12077672 -1.49157877 0.95073438
C 11.305776 0.358814 0.435753 0.68078915 2.25332204 -5.65656650
C 8.907950 0.698642 -0.109636 -5.75322218 -1.57238107 -0.73450755
H 6.168276 1.003625 1.328121 -0.54712268 -0.91423929 -0.56463270
H 4.783609 1.200349 0.192977 0.86319300 0.92706847 0.06436169
H 4.935051 -0.494277 0.793367 3.45235573 3.34019108 -0.34340207
H 6.554897 1.296051 -1.227678 -0.61125419 -1.64287376 0.92589552
H 6.077972 -0.352716 -1.462112 -1.41047536 -1.54046334 -0.86938547
H 7.622508 -2.284645 -0.443822 -2.82431739 -3.64683110 -0.57519846
H 10.179212 -2.202601 0.142561 1.37382209 -1.50710307 0.35516235
H 11.217102 1.415207 0.766114 0.36209103 -0.44172179 0.30836232
H 11.829205 -0.293031 1.055659 1.00777171 -1.76617613 2.39664293
H 11.868244 0.326371 -0.626121 -0.84232468 0.44719151 2.61755178
H 8.868425 1.726007 -0.084133 0.15241479 3.46793883 0.13426631
B 9.081725 -0.753577 3.383809 -6.04577337 1.38616147 0.25385268
F 8.659490 -1.532443 2.293954 0.21413979 -0.47443616 -0.40304813
F 8.293002 0.636762 3.104620 1.06679487 -1.82092339 0.04496847
F 10.333529 -0.471877 3.414662 5.44640073 1.14423688 -0.44315178
F 8.626162 -1.227757 4.612562 -0.43178102 -0.11717136 -0.15193669
48
Properties=species:S:1:pos:R:3:forces:R:3 energy=-41273.8654968290 pbc="F F F"
C -2.627529 0.377868 0.584682 -6.45728900 0.98765523 8.62689090
C -1.756109 0.142214 -0.506486 -4.51219312 4.72403194 -6.00401972
N -0.503018 -0.198105 -0.262141 9.66635662 -1.25611620 1.86929034
C -0.083526 -1.463056 -0.135724 4.15746517 -3.78430144 0.60874611
C 1.303534 -1.407937 0.133353 -0.01606162 -10.28471887 1.16007598
N 1.725565 -0.168772 0.230199 3.07988099 -0.14656858 1.36314294
C 3.084928 0.285530 0.546967 -6.89535236 3.36600825 -1.66013127
C 0.708713 0.530323 -0.090963 -8.29218469 11.17554766 -1.21498049
H -2.000234 0.932300 1.479351 -1.80146966 -2.08986506 -2.19484947
H -3.532114 1.125463 0.397418 2.36265183 -1.56741948 -0.33005209
H -3.246457 -0.602544 0.993018 2.49338443 2.67859148 -0.85349473
H -1.669828 1.121735 -0.987303 -0.05934334 0.68555131 -0.68199317
H -2.098639 -0.478127 -1.303857 -1.21476427 -1.32749996 -0.95607314
H -0.586182 -2.378341 -0.372616 -1.12693390 -0.62269911 0.00574988
H 2.025603 -2.315763 0.388989 -1.93779672 2.27127647 -0.80520822
H 3.019142 1.392072 0.950806 -0.83217124 -2.58083191 -0.03097787
H 3.557523 -0.436496 1.191971 -3.47399796 -0.03172736 1.32517633
H 3.624705 0.410456 -0.417355 -3.11087711 -1.89579638 -0.75365092
H 0.564280 1.681697 0.002164 0.83291995 -2.25559422 -0.15831489
B 0.730508 -0.795863 3.507538 -1.14729998 1.76829881 3.27386103
F 0.332699 -1.685934 2.496075 0.30417332 0.04328760 0.00894452
F -0.081923 0.487901 3.367965 1.65569365 -1.87855596 -0.53176644
F 2.127653 -0.613576 3.649620 -0.48499781 0.29338600 -1.47235838
F 0.368764 -1.217748 4.889458 -0.31675447 -0.13075193 -1.82970318
C 5.182260 0.338255 0.599804 3.21595100 3.76480115 -0.45375753
C 6.076794 0.247655 -0.654313 -3.91339133 -6.93622492 -0.62216673
N 7.374949 -0.253238 -0.292268 1.83591750 1.73975328 -0.69394384
C 7.884075 -1.530550 -0.279042 -3.44171106 -3.26574811 -0.02105450
C 9.178487 -1.501646 0.092990 -4.24942815 -1.97419111 -0.35582844
N 9.439921 -0.232415 0.112064 7.26398861 5.20124145 1.90296309
C 10.773903 0.255159 0.411794 3.68335363 1.93864936 1.42302836
C 8.459076 0.629139 -0.092574 -3.72005422 -2.20533517 -0.43787378
H 5.696229 0.793124 1.442075 0.89522689 -0.40674946 0.62223084
H 4.344480 1.086597 0.329659 6.52314765 0.07315620 1.63582133
H 4.580513 -0.523362 0.853360 5.49516532 -0.99908934 -0.44765240
H 6.167580 1.135840 -1.132864 0.61141770 4.24899883 -2.07556121
H 5.616743 -0.556381 -1.475162 1.15822555 2.44007901 2.40248148
H 7.283756 -2.435513 -0.447194 -0.25530610 0.35261983 -0.04118045
H 9.841125 -2.248701 0.072563 3.62914949 -3.71897448 0.37956646
H 10.781569 1.253671 0.969055 -0.49856532 -1.19154517 -0.87878651
H 11.370840 -0.422962 1.068418 -0.87186902 -0.15265778 -0.12768854
H 11.388409 0.363359 -0.508249 -0.37944068 0.13880741 -0.11376426
H 8.504865 1.664330 -0.048805 -0.10386289 2.71170381 0.14309959
B 8.584081 -0.761757 3.523174 1.24049551 -1.43125462 -0.70165958
F 8.161038 -1.831262 2.462301 1.22090109 1.21563032 0.35906583
F 7.934251 0.388767 3.151358 -0.75561243 0.81464199 -0.22160316
F 9.996849 -0.510054 3.587712 -0.90738025 -0.52191750 -0.82974585
F 8.205662 -1.364325 4.713795 -0.57943267 0.01410655 0.38881652
48
Properties=species:S:1:pos:R:3:forces:R:3 energy=-41277.4206575289 pbc="F F F"
C -2.787312 0.439955 0.357516 2.64907980 -0.98710396 2.28193856
C -1.836477 0.298154 -0.829908 -2.51879134 -1.51419588 -4.67033157
N -0.470424 -0.146835 -0.548199 -4.09227913 0.56441745 -1.13119851
C -0.184168 -1.452824 -0.519043 8.49797820 2.46135718 2.11303935
C 1.194647 -1.354664 -0.101592 1.90919453 -9.93424850 0.65994633
N 1.716327 -0.127716 -0.014713 -7.23603109 1.19278497 -1.87646297
C 2.986380 0.364084 0.169448 2.02950177 0.66865214 5.38940507
C 0.584837 0.627113 -0.378884 2.60681970 3.90468402 1.22723226
H -2.158934 0.842588 1.246065 -1.32007141 -1.05500677 -1.13075898
H -3.466156 1.183301 0.080741 -2.04485170 1.73697263 -0.45064933
H -3.310344 -0.515280 0.566491 0.31796932 0.41792174 0.35136107
H -1.779200 1.200892 -1.428205 0.37416411 1.38264256 0.21014334
H -2.251306 -0.425420 -1.719754 0.94304812 1.27547226 2.88132048
H -0.660810 -2.317578 -0.576549 -3.70457949 -4.49351264 -0.57641541
H 1.993081 -2.252553 -0.089082 -2.41678523 2.12927422 0.25507911
H 2.898072 1.367649 0.681530 0.29871454 -0.85591221 -0.65403506
H 3.516933 -0.355726 0.885385 -1.50362873 0.98183165 -0.86590655
H 3.478031 0.375615 -0.733731 2.05812085 0.47417114 -3.18084453
H 0.563180 1.695422 -0.283498 -0.24469469 1.02205096 -0.03993065
B 0.646833 -0.781446 3.264966 -0.20051351 1.65018871 0.82031883
F 0.317788 -1.656091 2.192444 -0.51772719 -0.84179271 -1.41625251
F -0.086251 0.466338 3.082808 0.61549800 -0.76044671 -0.36614677
F 2.029649 -0.611826 3.171310 0.55453559 0.51522091 -0.00835745
F 0.277158 -1.293591 4.519141 -0.10453195 -0.41142395 -0.25280333
C 5.625036 0.576227 0.667999 -1.90044252 8.34164412 0.89989420
C 6.525063 0.491947 -0.557999 -8.91491903 3.83441395 -4.09827400
N 7.760526 0.089268 -0.258884 7.49747292 6.06072451 0.59132351
C 8.281982 -1.052471 -0.185363 1.17792573 -16.08436088 1.08915661
C 9.659488 -1.124311 0.222310 -5.27100145 -1.78306186 -1.02479878
N 9.949297 0.178741 0.258697 8.05457433 1.22487260 1.35599516
C 11.450315 0.709173 0.511426 -5.48278965 -9.40867487 3.45206324
C 8.919033 0.918667 -0.015571 -5.51369322 4.38605439 -1.03076458
H 6.194652 1.160794 1.492783 -0.78666149 -2.27795589 -0.64375947
H 4.795429 1.512223 0.412217 3.31387893 -2.99355550 0.55927957
H 4.896193 -0.159140 0.894179 1.31911258 -1.95532070 1.06195921
H 6.461833 1.547941 -1.038823 1.14802004 -1.51703694 0.94967031
H 5.994054 -0.090767 -1.374860 1.02219253 -0.34662227 0.79958829
H 7.630573 -2.083942 -0.309172 1.83489089 3.36369751 0.24673051
H 10.261328 -1.992229 0.312052 1.19497232 -0.93481483 0.28183916
H 11.261003 1.568486 0.887304 -0.70209127 7.97542599 3.90076097
H 11.757546 -0.109109 1.209493 0.74659453 1.12067683 -0.15695529
H 11.844438 0.715514 -0.374543 3.75397548 0.03413778 -6.86319022
H 8.823325 1.978383 -0.028141 0.23112647 1.32242569 0.09610309
B 8.992072 -0.375131 3.550494 -1.43746646 -1.49177014 0.40635717
F 8.518398 -1.440830 2.459799 1.51965002 1.77220464 0.76492637
F 8.248430 0.782646 3.335516 0.12208984 0.34777769 -0.81219247
F 10.377761 -0.140862 3.553269 -0.51173898 -0.44384805 -0.68667056
F 8.538183 -0.958528 4.770907 0.61879570 -0.04608758 -0.72306373
48
Properties=species:S:1:pos:R:3:forces:R:3 energy=-41279.6505067999 pbc="F F F"
C -2.695805 0.393626 0.459175 -1.67756045 4.09299450 4.90605821
C -1.855681 0.258356 -0.711681 4.44014318 4.63107011 -1.09713519
N -0.422910 -0.149516 -0.385724 -4.70601692 7.01380051 -1.21562053
C 0.019624 -1.324918 -0.334619 0.76441715 -15.33922772 -1.18367599
C 1.383547 -1.472522 -0.073794 -2.06330861 1.58959072 0.07236041
N 1.661752 -0.074243 0.019327 8.50575926 -2.55243776 1.52403241
C 3.034205 0.508325 0.345780 -0.33196596 -7.52921083 -4.09777323
C 0.642413 0.672753 -0.179822 -3.66179842 6.86722300 -0.33513303
H -2.099337 0.929264 1.344596 -1.03212349 -2.16869758 -1.73678729
H -3.371761 1.258482 0.227923 -0.31735419 -0.96315570 -0.05134370
H -3.313362 -0.449255 0.797771 0.46728805 -0.26444569 0.01300767
H -1.671613 1.309050 -1.191226 -0.52836713 -1.77344513 0.86463400
H -2.195592 -0.324696 -1.485807 -1.28741773 -2.71898777 -2.64649402
H -0.615724 -2.290298 -0.645896 1.19454717 2.81340902 1.12715678
H 2.017670 -2.376647 -0.002859 0.04800734 0.81746419 0.13786815
H 3.031582 1.434567 0.734589 -0.78343892 4.58747677 2.17952334
H 3.473698 -0.281926 0.997939 -1.46196035 1.14569875 0.21915385
H 3.709124 0.451747 -0.594047 -2.18661285 0.25936977 0.92504370
H 0.710864 1.791141 -0.216115 -0.54058110 -1.04429581 0.11953243
B 0.723280 -0.691551 3.311300 0.84392634 1.07585720 3.15804672
F 0.381832 -1.645133 2.355145 0.07354787 -0.53118563 -1.12644421
F 0.029187 0.536533 3.135754 -0.00165033 -0.04391942 -0.85263589
F 2.155645 -0.414880 3.344560 -1.46314946 -0.56023942 -0.50172074
F 0.280359 -1.179630 4.634549 0.66709161 0.14101138 -1.46791839
C 5.424412 0.370953 0.810008 3.66033268 4.04194494 1.61485684
C 6.301383 0.198704 -0.363593 2.56685029 1.26227893 -6.49014613
N 7.747818 -0.195522 -0.174147 -0.49583804 -2.17657318 0.81936827
C 8.158088 -1.520578 -0.054068 3.13479203 -0.32402165 1.03816039
C 9.538691 -1.413233 0.362981 -3.80295740 -9.58796340 -0.26126242
N 9.950630 -0.194405 0.396696 -1.41686439 5.83518012 -0.84124517
C 11.260642 0.311561 0.691965 1.72742946 -4.91316069 -4.23876889
C 8.842698 0.572688 0.111089 -1.09155440 5.52931064 -0.12292986
H 6.059426 0.829829 1.617641 -0.67204880 -1.00582935 0.03586931
H 4.742668 1.167791 0.510865 0.80141809 -0.09052199 0.73503031
H 4.961782 -0.534633 1.020177 -0.47171119 -2.04277059 1.40247125
H 6.536991 1.164718 -0.987140 -1.45306421 -1.21150300 1.36399657
H 5.907405 -0.544477 -1.166505 0.50125339 0.98077769 1.51092613
H 7.568156 -2.432646 -0.137220 -0.37687440 0.10075756 -0.13820478
H 10.195307 -2.287138 0.434967 0.24297358 0.10040113 0.26505149
H 11.219587 1.196579 1.105649 -0.44820645 6.30757602 3.36023764
H 11.580080 -0.457364 1.353070 1.83988347 -0.74642058 1.30133833
H 11.829042 0.402511 -0.273149 0.09186147 -0.38392005 0.74926095
H 8.784790 1.700133 0.138767 0.32250589 -1.31864079 -0.00394686
B 8.908485 -0.749178 3.682810 -0.19148813 -1.08013894 2.20753274
F 8.614695 -1.682867 2.592349 -0.16976734 0.18003377 -0.22899265
F 8.255939 0.476887 3.477321 -0.21836003 -0.39720675 -0.11343945
F 10.286161 -0.597395 3.698824 0.86800209 0.31951223 -0.25181524
F 8.539356 -1.391359 5.008202 0.09868339 1.07560327 -2.65239196
48
Properties=species:S:1:pos:R:3:forces:R:3 energy=-41277.0366965061 pbc="F F F"
C -2.921758 0.432042 0.500160 -5.01321475 -1.46500984 4.14871965
C -2.024349 0.242266 -0.620267 -3.62820347 2.46599699 -7.77001985
N -0.718230 -0.107789 -0.428749 8.29328016 -4.73595374 2.33360471
C -0.285981 -1.496324 -0.299775 8.93565844 10.04214818 1.98206749
C 1.142915 -1.428343 -0.029179 -7.46039298 -3.05801430 -1.57174451
N 1.404654 -0.137662 0.006823 17.56792045 -6.82382871 3.90881936
C 2.752152 0.379563 0.458780 0.02175058 2.03143006 -5.60816425
C 0.517467 0.609044 -0.073279 -19.92706651 14.46667569 -3.31476413
H -2.332168 0.853292 1.346524 -0.47920493 -0.50052012 0.13846248
H -3.695752 1.202528 0.216592 0.62168620 -0.71620075 0.29096938
H -3.570441 -0.568036 0.821982 2.42854443 3.00710899 -0.72049052
H -1.973464 1.222672 -1.196557 -0.03886756 -0.43655279 0.71026663
H -2.425101 -0.421686 -1.494514 0.34318556 0.55891356 1.90418006
H -0.781342 -2.274124 -0.436075 -6.31697912 -8.71591030 -1.61221331
H 1.802491 -2.178122 0.178383 2.59115181 -2.64770625 0.68240454
H 2.794981 1.394615 0.857257 -0.91055800 0.09663579 0.91479967
H 3.209719 -0.361410 0.992913 1.27247563 -2.47108371 2.72155492
H 3.312530 0.471028 -0.533874 -0.53965292 -0.26793419 1.11501795
H 0.459673 1.725012 -0.185047 0.61949168 -0.97400103 0.43828930
B 0.472028 -0.730662 3.422050 -0.34990879 1.14721867 0.64437873
F 0.206591 -1.672080 2.365093 -0.22180081 0.17028311 -0.26762200
F -0.266692 0.527196 3.179782 0.73533530 -1.18731606 -0.47436453
F 1.862281 -0.503506 3.423901 0.13047419 0.27307384 -0.39397220
F 0.074214 -1.192290 4.688807 -0.21694861 -0.27793969 -0.40167191
C 5.611588 0.130623 0.653887 -4.43651957 5.29507797 8.85703537
C 6.493293 0.039671 -0.419529 0.31135068 3.99154801 -8.42612230
N 7.849380 -0.275965 -0.189091 2.93576421 -4.32809706 0.63916188
C 8.271926 -1.623153 -0.117981 5.52376966 -0.71517249 0.35488364
C 9.709631 -1.716443 0.084943 -8.61039117 7.84758554 -0.97396978
N 9.986259 -0.301458 0.325323 6.24811831 -4.77413395 0.69111863
C 11.374483 0.173024 0.648136 -0.75690890 -0.18110735 -3.68443131
C 8.981549 0.471589 0.107444 -5.30563873 5.82521025 -0.82353824
H 6.222310 0.656793 1.564140 -1.68498257 -2.46460464 -1.63824527
H 4.859716 1.021088 0.515012 1.73387477 -1.94085435 -0.27860988
H 4.929954 -0.737726 0.934322 2.04833619 0.64662797 -0.08870894
H 6.575241 1.063759 -1.067994 -0.55470422 -2.29231200 1.87246165
H 6.038927 -0.649733 -1.134485 0.59458850 -0.78317443 -0.82864852
H 7.800463 -2.549658 -0.274627 -2.33858414 -1.22024807 -0.47604833
H 10.249381 -2.511613 0.320389 3.75365987 -4.45233655 1.41239225
H 11.267416 1.184468 0.955618 0.34329131 1.47283571 1.33642696
H 11.779520 -0.565002 1.283369 1.04583407 -0.88644025 2.11360142
H 11.926167 0.163839 -0.328796 0.01282533 0.03214433 0.51929792
H 8.898326 1.594252 0.076389 0.63965465 -1.10068470 0.27223059
B 8.968263 -0.927560 3.640724 3.28872194 1.93425727 -0.59624841
F 8.733588 -1.837053 2.628435 -0.01604036 -0.68924184 -1.17537982
F 8.386148 0.315860 3.421488 -0.45897321 0.85977803 -0.85852256
F 10.549494 -0.569677 3.576065 -2.76765134 -0.98311256 0.03786159
F 8.594428 -1.382598 4.845170 -0.01389689 -1.07890860 1.96271691
48
Properties=species:S:1:pos:R:3:forces:R:3 energy=-41276.0247905338 pbc="F F F"
C -2.976985 0.325189 0.654911 -1.68270477 5.07839321 -8.94904377
C -2.043828 0.251969 -0.670836 -2.26934286 1.65522915 -0.46518294
N -0.716822 -0.242397 -0.482530 2.07348208 2.47586541 1.51507244
C -0.363987 -1.575576 -0.388428 8.44608918 6.70234281 2.14311704
C 0.998772 -1.400547 0.025030 2.23354496 -9.59904494 0.96170617
N 1.512795 -0.147967 0.172178 -9.63768295 0.80263646 -1.54342209
C 2.740633 0.352102 0.475852 4.67686115 -4.34975981 -2.45116345
C 0.336056 0.624031 -0.070147 0.35023393 -0.64585474 -0.13296091
H -2.383951 0.762397 1.312275 3.18386296 2.06358625 5.09760706
H -3.706640 1.171040 0.243970 1.14851284 -2.12047850 1.64767486
H -3.511324 -0.504646 0.866816 -1.83470624 -3.93429298 1.26379975
H -1.894152 1.274006 -1.200460 -0.88147074 -1.56060642 0.99538031
H -2.392786 -0.499572 -1.362880 -1.47295512 -0.18657993 -1.05064813
H -0.851375 -2.416010 -0.504600 -3.81097415 -5.36369017 -0.96944865
H 1.733112 -2.360508 0.216829 -2.11727626 2.99198581 -0.57727518
H 2.827998 1.282533 0.892959 -0.86861397 3.45719345 2.20288976
H 3.216198 -0.470189 1.146015 -1.11988778 1.94909405 -0.83883860
H 3.338216 0.450514 -0.553410 -2.24700018 -0.78684967 1.95009325
H 0.423152 1.701148 -0.041059 -0.78899095 0.71322369 -0.23451230
B 0.449574 -0.780560 3.458913 0.60244358 1.50384583 2.71308495
F 0.095986 -1.663231 2.426590 -0.12015990 -0.09902665 -0.38219418
F -0.199700 0.539209 3.298681 0.34746607 -1.81480378 -0.10615944
F 1.868907 -0.515380 3.448516 -1.14180769 -0.51564738 -0.23647444
F 0.076772 -1.353163 4.821319 0.49939033 1.01223359 -2.86121173
C 5.259838 0.333607 0.436344 -5.93644832 0.15046836 0.86516115
C 6.015787 0.082271 -0.770756 5.81470883 8.94303910 -1.17404453
N 7.478521 -0.218852 -0.580430 -6.19456670 2.44802592 -0.86136373
C 7.886773 -1.409525 -0.398895 0.88592278 -15.35716433 -0.30725137
C 9.250047 -1.513402 -0.156642 -3.33923998 0.84437977 1.11255303
N 9.524829 -0.180290 0.011158 4.95315774 -0.68671281 -0.32612984
C 10.889919 0.268178 0.217377 4.72151143 0.28187211 2.27898618
C 8.499642 0.574073 -0.366843 1.73884600 7.99797250 1.05084137
H 5.857262 0.831573 1.194760 0.40823823 -0.70475975 1.09983876
H 4.348021 1.080213 0.181075 5.18323721 -1.02018300 0.63734006
H 4.531469 -0.575205 0.612741 4.03528713 1.46400443 0.98295348
H 6.251504 1.151746 -1.294364 -1.29332880 -2.09990602 1.21819894
H 5.734329 -0.405867 -1.589437 -2.48372236 -4.08493167 -4.01662558
H 7.347050 -2.494311 -0.518861 0.51644409 3.90823464 0.14170916
H 9.886687 -2.335232 0.003186 1.28173472 -1.36451278 0.35043466
H 10.857036 1.309162 0.762068 0.38332466 -2.04282792 -1.29695514
H 11.450136 -0.542865 0.936934 -1.86574903 2.40617129 -1.58005608
H 11.560266 0.244976 -0.747203 -1.67351156 0.55154675 1.45438571
H 8.600034 1.685127 -0.224415 -0.84003399 -1.05513416 -0.45773273
B 8.747928 -0.779310 3.333416 -5.07792619 0.35256650 -0.32175110
F 8.456348 -1.731681 2.190018 0.36331260 0.63942338 0.89338840
F 7.975033 0.459655 3.035712 0.37483102 -1.34182005 -0.11152828
F 10.019056 -0.443196 3.331873 3.67409341 0.24141146 0.13567920
F 8.222011 -1.302035 4.570693 0.79979720 0.09335713 -1.48132357
48
Properties=species:S:1:pos:R:3:forces:R:3 energy=-41279.4795923819 pbc="F F F"
C -2.799730 0.501079 0.263496 -1.37349317 -0.84218732 4.66178209
C -1.910953 0.346011 -0.857383 -5.02500335 1.37240539 -7.85008854
N -0.633735 -0.006349 -0.625745 10.24666503 -4.94568140 2.52851852
C -0.115790 -1.384124 -0.466324 4.64989614 7.23427945 0.57475073
C 1.281271 -1.261545 -0.305302 -1.68860388 -8.04940273 0.82545885
N 1.650172 0.008996 -0.204030 -0.71173848 2.25195698 0.55358719
C 2.944912 0.501401 0.210403 0.33655576 -2.49616993 -3.70757701
C 0.534200 0.767886 -0.281593 -4.19674207 6.21029026 -1.22070408
H -2.134722 0.832453 1.098793 -0.91435559 0.17972766 -0.00210415
H -3.558749 1.224354 0.031489 -0.75400293 0.78101079 0.05760623
H -3.289767 -0.430232 0.595911 0.12004606 0.05057633 -0.09703304
H -1.857089 1.333832 -1.333342 0.11579373 0.62794450 -0.26939269
H -2.343645 -0.292642 -1.765501 0.81691979 0.87365848 2.23010872
H -0.601210 -2.208000 -0.680157 -3.78025675 -5.41266564 -1.24026556
H 1.930917 -2.195759 -0.029225 -0.95021895 2.32876587 -0.81685514
H 2.896408 1.469445 0.596461 -0.73441216 2.19482142 1.38857405
H 3.383884 -0.246761 0.863269 -0.81863145 0.01226355 0.65455501
H 3.533179 0.520362 -0.760455 -0.67358821 -0.06212633 1.05494824
H 0.512692 1.965034 -0.416061 0.25489223 -3.34606392 0.47525861
B 0.695428 -0.552417 3.165263 -0.68958726 -0.21902522 3.15540052
F 0.409702 -1.489291 2.185818 -0.32018247 -1.00624791 -1.03313577
F -0.067528 0.608770 2.958927 -0.00514778 0.37901054 -0.35831310
F 2.067630 -0.306704 3.231946 -0.02787519 0.08178570 -0.03526718
F 0.190481 -1.124685 4.529557 1.01781587 0.85236530 -2.44331470
C 5.342640 0.766312 0.534175 -1.99248937 2.15997746 2.64892177
C 6.146122 0.524094 -0.721263 2.56376562 4.23931341 2.30559653
N 7.555599 0.148981 -0.365051 -4.36338481 -0.88994137 -1.00899429
C 7.808408 -1.187538 -0.213005 7.90637788 -0.05455124 0.47016534
C 9.276584 -1.088892 -0.035390 -1.12273263 -3.93669470 1.62034162
N 9.771478 0.184154 0.154444 -3.67783193 1.16432303 -1.43683147
C 11.153242 0.761599 0.430980 -0.74042658 -6.81547552 1.79150846
C 8.586502 0.939649 -0.066069 3.38484159 5.01291243 0.89972299
H 5.889541 1.158645 1.451733 0.33935763 -0.49184809 -1.43900503
H 4.534599 1.629541 0.295026 3.27361042 -2.41526872 0.95007000
H 4.827888 -0.155435 0.890948 1.41546256 0.82666871 -0.17527883
H 6.243298 1.527342 -1.120518 0.19258617 0.67363806 -1.11294084
H 5.823737 -0.111138 -1.472551 -1.40273736 -2.34941856 -1.94572110
H 7.328488 -2.106887 -0.495704 -1.21509099 -0.24526023 -0.25733000
H 9.998440 -1.866414 0.174686 0.14495649 -1.06323623 -0.14560289
H 10.890413 1.672713 0.876613 0.56465885 2.41520603 1.43250039
H 11.608543 -0.151749 1.094649 -0.77874284 3.30869550 -1.00664317
H 11.676710 0.745903 -0.494240 1.11050648 0.77890630 -1.66321697
H 8.630190 2.072647 -0.035075 -0.60091560 -1.45089753 -0.15705473
B 8.682733 -0.374307 3.402930 1.87165409 -1.61233879 2.51821338
F 8.405483 -1.327526 2.370156 -0.08244978 -0.28083697 -0.77027012
F 8.020763 0.791106 3.179521 -0.68650715 1.60623735 -0.80567288
F 10.121249 -0.229360 3.502729 -0.96783957 0.22540646 -0.65751553
F 8.269375 -0.927705 4.688135 -0.01915893 0.14746736 -1.15883513
48
Properties=species:S:1:pos:R:3:forces:R:3 energy=-41277.3059572609 pbc="F F F"
C -2.933291 0.346246 0.776443 2.29140971 4.29514708 -2.28769330
C -1.938649 0.190266 -0.483238 -0.98225355 0.80934138 -0.29401684
N -0.549307 -0.327354 -0.298323 -6.03841883 5.38323544 -0.04820281
C -0.171135 -1.541550 -0.074600 -1.01141256 -11.07482974 -1.50878428
C 1.156219 -1.584282 0.099589 -0.52966064 2.92753719 0.92032961
N 1.424220 -0.200984 0.259368 17.86107073 -7.44721367 3.73432963
C 2.877892 0.359087 0.635080 -2.30141446 -8.58001363 -7.14878504
C 0.469806 0.468558 0.068145 -11.08572878 15.89567608 -2.52742368
H -2.215268 0.813243 1.556293 -1.81610508 -1.30244185 -0.26377974
H -3.655770 1.234366 0.371362 1.37921577 -2.93361239 1.56617911
H -3.361755 -0.638302 0.925132 -0.67025338 -0.20087842 0.98438627
H -1.782491 1.176351 -0.972661 -0.19568842 -0.20601118 0.10896199
H -2.351681 -0.499032 -1.211194 -0.68133438 -0.39880405 -0.72376127
H -0.753170 -2.505201 -0.318640 0.36861507 2.01983856 0.56819811
H 1.882687 -2.283525 0.225850 2.59544858 -2.91149770 0.61934080
H 2.829378 1.272531 0.995325 -0.70208152 5.93230148 3.15714356
H 3.297109 -0.490945 1.206598 -1.16127531 1.02121898 0.77112126
H 3.492156 0.383226 -0.400851 -3.30809566 -0.39518915 2.24653439
H 0.467020 1.682512 0.014062 -0.27207986 -3.66531210 0.26803287
B 0.528027 -0.845855 3.568685 1.12239630 2.73841360 3.35439712
F 0.193052 -1.708994 2.566302 -0.29859519 -1.18736221 -1.19407254
F -0.195296 0.442856 3.350955 0.98833256 -1.56477107 -0.07407163
F 2.018166 -0.555441 3.542754 -2.77099957 -0.61980706 -0.15268837
F 0.125921 -1.342466 4.927493 0.89506614 0.74922786 -2.69490021
C 5.195847 0.427620 0.612084 8.50908454 -0.19399298 0.17964334
C 6.181570 0.276311 -0.669762 -0.43703830 1.58661849 3.56924859
N 7.534432 -0.246596 -0.455387 0.13735349 5.59117859 1.07670498
C 7.999976 -1.493126 -0.286942 -6.64889751 -4.92422227 -2.19983875
C 9.237143 -1.496124 0.030334 8.30680821 0.51900106 3.13144042
N 9.659713 -0.108449 0.167450 1.33745588 -1.41228734 0.50748717
C 11.049645 0.379004 0.530078 -1.33717063 2.42163355 -8.62621311
C 8.559433 0.634476 -0.030048 -1.27938032 1.85501514 -0.53962546
H 5.954679 0.788616 1.367637 -1.31087956 -0.51835656 0.22502634
H 4.604865 1.221262 0.305133 -0.88848744 2.01260168 0.20429491
H 4.724387 -0.511194 0.862092 1.20670117 -0.06404153 0.17296041
H 6.263560 1.249198 -1.134692 0.19082584 0.67461601 -0.59997918
H 5.737055 -0.405248 -1.257638 -2.31886576 -3.17640000 -3.78142625
H 7.304301 -2.338033 -0.440451 0.46168011 0.17191433 0.00760982
H 10.018485 -2.239042 0.218331 -0.40178686 -0.39572019 -0.12191428
H 11.058858 1.373169 0.946237 -0.27706729 0.93260120 0.44624421
H 11.383177 -0.318073 1.137817 2.85099985 -4.49394329 4.46127367
H 11.641959 0.343707 -0.559063 -1.28774880 0.32658461 3.53160187
H 8.628407 1.736594 -0.054920 -0.68024502 -0.28965058 -0.15209873
B 8.774082 -0.825174 3.525152 -2.42049442 1.11461416 -2.56805668
F 8.386128 -1.665355 2.332296 0.61787166 0.02389869 0.89402848
F 8.043699 0.382825 3.270407 -0.85616453 0.79841270 -0.57724158
F 10.060973 -0.490191 3.485512 3.64792470 0.01885073 -0.48417394
F 8.382005 -1.290940 4.717383 -0.82062635 -1.83811276 1.86274726
48
Properties=species:S:1:pos:R:3:forces:R:3 energy=-41276.3024226156 pbc="F F F"
C -2.799554 0.545035 0.595830 -2.57046018 5.63138751 -3.86584354
C -1.929882 0.590841 -0.683979 -2.83693619 -7.77979595 0.24692157
N -0.590266 0.147057 -0.272964 -3.18880537 -5.45162996 -2.06900368
C -0.207506 -1.209985 -0.258429 3.98997451 -1.35747576 0.88851550
C 1.195029 -1.237867 0.040197 -8.99208459 4.56614127 -0.99432419
N 1.490755 0.102101 0.172961 9.51431982 -4.98956849 2.46398591
C 2.896698 0.509014 0.506253 -6.45529025 7.85905552 -8.58376130
C 0.505505 0.823615 -0.095076 -3.44261814 6.98455501 -0.26078302
H -2.309116 1.031126 1.362001 2.04756295 0.39461497 3.07107196
H -3.527153 1.386576 0.333017 0.08052311 -1.19388683 0.43761530
H -3.417178 -0.256914 0.846248 -0.54002664 -2.65137386 0.43359234
H -1.805703 1.447278 -1.211611 0.02788575 4.49160753 -1.79709814
H -2.423672 -0.235755 -1.460167 1.91257108 2.39007118 2.04342744
H -0.711873 -2.154829 -0.278075 -1.72688313 -0.30290376 -0.39293049
H 1.777195 -2.008495 0.129477 4.77416999 -5.54681975 0.91682567
H 2.849879 1.593311 0.779002 -0.27454290 -0.82765106 1.11544859
H 3.386700 -0.079758 1.102029 2.00617063 -4.28085249 5.04519346
H 3.475524 0.678639 -0.520086 -3.76927302 -1.95666525 1.77201448
H 0.466528 1.846352 -0.031388 0.25010540 3.63385069 0.18458411
B 0.588664 -0.564855 3.488428 -0.28269018 2.76534355 0.58721144
F 0.230996 -1.458895 2.441803 0.64874305 0.15972633 -0.34575213
F -0.173906 0.778588 3.173740 1.16051173 -2.52394403 0.37690701
F 1.976910 -0.174024 3.553475 -1.23850453 -0.72130799 -0.76478181
F 0.202875 -1.106341 4.731263 -0.14135758 0.41134765 -0.67059759
C 5.202832 0.408503 0.238175 0.98543638 2.04250614 1.68852497
C 6.080291 0.234375 -1.016592 -3.13528930 2.24009869 -1.03411221
N 7.407187 -0.123526 -0.716472 2.96687080 -4.85544109 0.55334362
C 7.835972 -1.488570 -0.568482 2.26938698 2.63354558 0.24149366
C 9.179645 -1.355463 -0.245529 -1.21084971 -9.55472355 0.12081315
N 9.523214 -0.097493 -0.203794 12.13439601 -1.60569156 2.56822438
C 10.897365 0.379058 0.116718 2.27490654 1.62000523 -1.00376528
C 8.550068 0.594791 -0.427515 -12.35305567 12.01066955 -2.60933554
H 5.751245 0.827716 1.128330 0.45517847 -1.35139222 -0.51448376
H 4.461011 1.277649 0.098868 3.78351850 -1.19224216 -0.04375640
H 4.576347 -0.492190 0.478986 2.89520900 0.52101979 -0.38806093
H 6.129910 1.216115 -1.501364 0.04191671 0.49217238 -0.36221963
H 5.610977 -0.442775 -1.774071 0.49093765 -0.10163772 0.51488412
H 7.327869 -2.403828 -0.571848 -1.78626393 -1.56708472 -0.40034518
H 9.859658 -2.241476 -0.194413 -0.12793907 1.08986648 0.30127621
H 10.977999 1.415816 0.594596 -0.88207624 -1.46436544 -0.30819975
H 11.325664 -0.390769 0.753108 0.32563091 -0.26159976 0.78524089
H 11.553797 0.441453 -0.822637 -1.14546803 -0.26148757 0.82938480
H 8.391903 1.684569 -0.344570 0.84008356 -0.23356181 -0.04023032
B 8.673113 -0.685162 3.086976 -7.05133136 -1.46884576 2.21586213
F 8.293403 -1.608097 2.013050 0.36254576 0.24966673 0.02238571
F 7.910763 0.513515 2.913065 0.39715072 -0.42834276 -0.31019899
F 9.935583 -0.512856 3.165221 5.98362489 0.93710965 -0.23927470
F 8.208737 -1.313887 4.420055 0.50463731 0.81355022 -2.44428669
48
Properties=species:S:1:pos:R:3:forces:R:3 energy=-41273.6714239773 pbc="F F F"
C -2.725091 0.508433 0.434116 -3.07371915 -0.39101683 -1.06102844
C -1.818242 0.249288 -0.853772 -3.61678531 5.86455276 1.26086024
N -0.501409 -0.067778 -0.450133 1.06369250 2.60873460 -0.30404268
C -0.125768 -1.312530 -0.338005 3.12269935 -8.79282127 -0.61727203
C 1.275165 -1.340538 -0.186830 -2.50547548 1.80133745 0.96173868
N 1.679154 0.031867 0.056579 -0.76552358 -7.35172767 -0.14408312
C 2.934121 0.498892 0.373744 2.68473316 -4.19323503 -3.59390239
C 0.635254 0.691546 -0.218478 -6.64217517 8.47811436 -0.74484962
H -2.126684 0.960703 1.206917 0.83468696 -0.11806068 0.98396610
H -3.497809 1.322920 0.179296 0.96792851 -1.45446957 0.10955630
H -3.309249 -0.406811 0.801123 1.19480731 1.21493478 -0.39042587
H -1.824356 1.320089 -1.258544 0.51086130 -1.51485271 -0.31675753
H -2.240593 -0.408594 -1.589337 -0.22694566 -1.15340555 -0.73131907
H -0.764236 -2.254470 -0.578829 0.98735179 2.13703217 0.61552312
H 1.914888 -2.110172 0.027689 2.21490800 -2.79244075 0.66481096
H 2.956147 1.446709 0.802768 -0.46297835 2.58268862 1.48963132
H 3.468649 -0.334064 0.990160 -2.64713951 2.20728277 -0.31177233
H 3.584755 0.522497 -0.707845 -4.47781081 -0.47131028 2.78430464
H 0.598392 1.781344 -0.118920 -0.25210969 0.10078125 -0.13484178
B 0.715562 -0.624291 3.363851 -4.32667040 0.08223184 1.13410142
F 0.319763 -1.523112 2.266841 0.15069975 0.28214664 0.82187413
F -0.025174 0.645255 3.089425 1.09122047 -1.55608088 0.31401868
F 2.049270 -0.454454 3.317775 1.67695450 0.24781875 0.26720431
F 0.176609 -1.147387 4.722064 1.41434355 1.02176629 -3.30385055
C 5.266832 0.374642 0.225900 -0.47794334 7.20719025 -0.00222882
C 6.149336 0.271573 -0.992481 -12.80433490 3.93499068 -8.06626318
N 7.329015 -0.106600 -0.754294 15.48153941 -6.76696754 3.30605570
C 7.851829 -1.476323 -0.599968 2.66000166 3.09694719 0.33845644
C 9.246700 -1.419171 -0.380765 -10.69809917 5.55504150 -1.54158427
N 9.477400 -0.095055 -0.247202 7.71008165 0.21859862 1.48800327
C 10.845061 0.435338 0.065746 4.25256850 -5.63667926 -0.94945227
C 8.448035 0.655108 -0.396063 -5.56335348 8.14576664 -1.12288858
H 5.810608 0.898816 1.051265 0.05150209 -1.38749559 0.06092537
H 4.367923 1.243090 -0.060209 6.99296420 -2.08500300 1.30725038
H 4.600789 -0.424618 0.445714 2.62868778 -1.65885258 0.26328424
H 6.190678 1.324533 -1.647425 -0.30235889 -2.79347794 2.05353878
H 5.719483 -0.538622 -1.797098 0.45581518 2.21754196 2.02010267
H 7.333427 -2.324485 -0.838696 -2.44900864 -2.88962429 -0.79233170
H 9.823937 -2.144411 -0.278782 7.07843605 -7.92269361 1.29497082
H 10.945542 1.406406 0.467069 -0.68422447 2.00217905 1.00482257
H 11.360246 -0.402844 0.799430 -1.66515312 2.74769568 -1.65005647
H 11.513698 0.364355 -0.900650 -1.53527247 0.33954467 1.61453031
H 8.466960 1.847735 -0.499524 0.00550423 -3.25416721 0.41216987
B 8.689077 -0.692965 3.055419 -5.38026541 -1.42858998 1.59845025
F 8.240859 -1.649634 1.979175 0.78075319 0.63107182 1.20273491
F 7.912297 0.487747 2.766024 1.00075399 -0.74295879 0.36651421
F 10.005604 -0.537394 3.090917 2.20013088 0.25969373 -0.10976886
F 8.167083 -1.279955 4.489193 1.34810885 1.35366391 -3.87937272
48
Properties=species:S:1:pos:R:3:forces:R:3 energy=-41278.4217079787 pbc="F F F"
C -2.689122 0.418764 0.197017 -5.11924626 3.35853992 2.56697970
C -1.881163 0.325582 -1.007901 1.63153998 2.19568349 -1.12256834
N -0.514226 -0.108791 -0.716157 1.65288189 4.39730958 0.24193474
C -0.063989 -1.363391 -0.609864 -0.51896348 -3.19036779 -0.36005688
C 1.243860 -1.317232 -0.314033 -0.26519876 -1.42324573 0.94848214
N 1.639775 -0.053547 -0.111615 -3.35614906 3.66724529 -1.63215477
C 2.925503 0.474132 0.015264 -1.75476190 -1.07698183 6.66309681
C 0.582595 0.784543 -0.403517 -3.15009139 -0.10557334 -0.43128290
H -2.141099 0.900248 1.043540 -0.11499620 -0.92647207 -0.21529245
H -3.516726 1.225125 -0.060392 1.58352063 -1.74342225 0.63099514
H -3.295891 -0.461799 0.466099 0.81425721 -0.25839598 0.30596827
H -1.832916 1.339428 -1.452623 0.44391093 -0.17157789 -0.17475434
H -2.258540 -0.315030 -1.740225 -1.21984934 -1.88854172 -1.95896392
H -0.628331 -2.270476 -0.748286 -0.77579763 -0.38991947 -0.24070373
H 1.921992 -2.062096 -0.183627 2.48836042 -3.25781083 0.50505731
H 2.925707 1.453814 0.560959 -0.85536363 -0.62861196 -0.50156834
H 3.389071 -0.272896 0.773087 -2.68745697 1.81807871 -1.35762692
H 3.491439 0.532705 -0.827509 0.60297268 -0.50067918 -4.17373057
H 0.516801 1.894871 -0.377402 0.16718821 -0.77632597 0.06174249
B 0.678265 -0.588837 3.143159 1.33211765 -1.05045080 -1.51378700
F 0.343228 -1.619615 2.093677 0.21351241 0.44216508 -0.46711023
F 0.001295 0.572830 2.857221 -0.36877584 1.06121135 -0.53432311
F 2.100993 -0.427788 3.083529 -0.94173163 0.04973636 0.04387006
F 0.208856 -1.185183 4.280728 -0.14571032 -0.46102796 1.51969811
C 5.169189 0.450485 0.389528 2.54965633 4.33960906 -0.30479601
C 6.016910 0.345830 -0.882941 0.99638974 0.59629527 0.01118641
N 7.398450 -0.064653 -0.589785 -2.07926770 -5.43406259 -0.66248846
C 7.855028 -1.429505 -0.477923 0.74569367 2.56243612 0.56224425
C 9.204959 -1.328568 -0.093639 -4.84957805 -12.63089746 -0.97131961
N 9.510382 -0.132249 -0.133381 5.53815433 14.02126996 1.20534763
C 10.918987 0.456025 0.227815 -2.83587737 -2.53147233 -2.71719262
C 8.409027 0.739622 -0.376405 4.01574002 1.26657859 0.95082495
H 5.801761 1.066632 1.173090 -1.40605799 -2.42615289 -0.81670932
H 4.418477 1.235271 -0.023628 3.60283189 -1.04566217 2.24740723
H 4.557497 -0.482593 0.546843 3.90102957 0.83031419 0.91333200
H 6.214658 1.329025 -1.348124 -0.88722681 0.10957470 -0.26740630
H 5.607870 -0.376442 -1.583610 -0.31821958 -0.31924532 -0.77821780
H 7.243895 -2.263643 -0.640729 -1.42350293 -1.64543395 -0.31142268
H 9.824869 -2.247660 -0.147136 0.38591181 0.83539697 0.67067888
H 10.839367 1.430428 0.596841 -0.28183086 2.13696333 1.71535964
H 11.351031 -0.330853 0.782777 1.18866074 -0.83528842 1.96434694
H 11.394673 0.489119 -0.726659 1.16532889 0.25454130 -1.46900688
H 8.415788 1.809424 -0.246441 0.05546651 0.68330328 0.01081660
B 8.611072 -0.677622 3.224575 -1.32850709 0.79647950 3.14415686
F 8.206608 -1.567720 2.187120 0.72798808 -0.06634792 -0.14372378
F 7.902379 0.574179 3.050439 0.43793329 -1.13924076 -0.04669750
F 9.992670 -0.389574 3.306524 -0.68532641 -0.74705271 -0.43895507
F 8.135664 -1.308359 4.600777 1.12366440 1.24880066 -3.28604700
48
Properties=species:S:1:pos:R:3:forces:R:3 energy=-41277.8418931467 pbc="F F F"
C -2.634444 0.132556 0.330815 -5.42246912 5.94725914 6.06900815
C -1.811254 0.042910 -0.791672 2.98875248 0.53938814 -6.83843663
N -0.425082 -0.381034 -0.495582 -3.92192467 0.33759021 -0.73199688
C -0.071167 -1.666154 -0.440669 2.35635605 -4.67690136 0.33186609
C 1.306175 -1.612411 -0.115098 -2.92159805 -8.20764245 0.59276886
N 1.687358 -0.393217 -0.033674 1.43103562 8.10205048 1.54080804
C 3.021157 0.151320 0.379635 -1.88506129 -5.85630531 -8.99584167
C 0.575580 0.432925 -0.215141 2.59719397 -0.18075983 0.59661824
H -2.114693 0.751184 1.182472 -0.64666694 -2.16216300 -1.19380005
H -3.457881 0.930505 0.095913 1.28231922 -1.49251889 -0.05859314
H -3.263327 -0.675102 0.681755 0.65381894 -1.25051608 0.37527413
H -1.671911 1.021165 -1.337111 -0.26817326 -0.38717870 0.72993204
H -2.104886 -0.637555 -1.621205 -0.52705030 -0.16807269 0.47597160
H -0.652608 -2.626780 -0.537494 0.09268334 1.58506789 -0.08288995
H 1.960352 -2.460414 -0.004818 0.61712560 -0.56106480 0.10949948
H 3.025613 1.095798 0.653975 -1.06190780 5.82734088 2.95113376
H 3.500563 -0.592961 0.953810 -0.47072191 -0.85407674 1.59849344
H 3.536550 0.213162 -0.736599 -1.50970807 -0.69478556 3.21640413
H 0.583988 1.464836 -0.185897 -0.11182320 2.98316935 0.05092459
B 0.740483 -0.932076 3.356941 -1.22817970 -0.94649436 -0.89838057
F 0.515301 -1.966040 2.187052 -0.02790953 1.07913740 0.76248425
F -0.023307 0.235576 3.002228 0.81583102 -1.00371331 0.14284663
F 2.109551 -0.779107 3.326342 0.71330078 0.69606012 -0.04112693
F 0.315069 -1.483368 4.595595 -0.00326278 0.28468040 -1.22935393
C 5.402945 0.381471 0.507043 -1.09633839 2.07001593 -3.22746788
C 6.267180 0.145485 -0.836344 -5.41439734 9.82607911 1.75655495
N 7.519613 -0.174875 -0.495878 6.10445420 2.25064175 0.75493712
C 7.995654 -1.353521 -0.388333 3.24817911 -15.31271448 -0.28410587
C 9.409008 -1.482370 -0.162548 -4.49878863 2.38854923 -0.36043666
N 9.764270 -0.128889 -0.099609 0.48664495 -1.31729428 0.88932576
C 11.090825 0.357586 0.288815 3.20464142 -2.85312465 -1.25633361
C 8.638381 0.600055 -0.247143 -0.63658752 8.87978088 -0.13044773
H 5.962229 0.879752 1.285681 0.90966359 -0.42416301 0.84862846
H 4.588480 1.162859 0.165635 3.38050456 -1.46435605 1.20047257
H 4.832051 -0.523906 0.735583 2.45077694 0.15916263 0.77166890
H 6.391395 1.305719 -1.201323 -0.72207862 -3.33172135 0.09118695
H 5.793876 -0.441351 -1.554403 -1.04166663 -1.92798993 -2.01163002
H 7.454484 -2.396888 -0.628337 0.58313989 3.26237079 0.76447045
H 10.060487 -2.289979 0.032921 1.01603389 -1.42603165 0.21318824
H 11.026618 1.298374 0.749732 -0.29290693 2.39856696 0.93006316
H 11.574176 -0.378823 1.076740 -1.09019617 1.34244636 -1.74472925
H 11.668169 0.418763 -0.723020 -0.33239321 -0.05278581 2.08583414
H 8.623002 1.806396 -0.266865 0.01490236 -3.53148753 0.07650929
B 8.733897 -0.749060 3.320335 2.17392531 -0.64819857 2.45891978
F 8.406826 -1.680606 2.315703 -0.08956318 -0.59316632 -0.73250205
F 8.044485 0.423655 3.133500 -0.32079042 1.10337189 -0.47957661
F 10.226431 -0.534081 3.260745 -2.36271447 -0.26498295 -0.01174645
F 8.352535 -1.294934 4.658756 0.78218983 0.51257853 -2.08627559
