32
energy=-36599.2233307301 config_type=IL_pair name=BMIM-PF6 Properties=species:S:1:pos:R:3:forces:R:3
C 3.4422951019 0.4135438132 0.3476850391 2.1452233619 0.9137205260 0.3437470252
C 2.9656477794 -0.7855507847 -0.4434965940 0.4155405044 -1.1431441723 0.1586522445
C 1.4954887273 -0.6056763896 -0.8158209863 0.2653616616 0.7711126137 -1.0894804705
C 0.7536987624 -0.4854981382 0.5052226707 0.3404362251 1.0665619313 -1.1452013233
N -0.6827720481 -0.3063929704 0.3143677019 5.1849809832 -1.6910596624 1.6490408607
C -1.5681792896 -1.3378737326 0.2376678672 -3.5306597962 -4.4484443108 -0.7514591360
C -2.8326428225 -0.8061445182 0.0562574632 0.9246331559 -3.1150771989 0.1465418147
N -2.6591601848 0.5340366988 0.0304902557 -4.6990048283 1.6594315128 -0.2963707726
C -3.7384462241 1.5190628558 -0.1433986723 0.8684880609 1.6977664236 -0.1758353948
C -1.3549163184 0.8402116917 0.1869651822 1.6274764802 6.5287669406 -0.5888443380
H 3.0122281287 1.3119628647 -0.1289593767 0.3711951633 0.2511541916 0.5473802960
H 3.1965229144 0.3299314959 1.4255377475 -0.1114432919 0.2893731171 -0.3015612017
H 4.5674663241 0.4308267192 0.2707454753 -0.9948517339 0.4236214058 0.1925352152
H 3.0519195823 -1.6502519410 0.2461936160 0.1465944482 -0.2510091819 -0.6811021970
H 3.6157335865 -0.9099755553 -1.3224929979 -0.1358322788 -0.3127021503 -0.1136640216
H 1.3410625519 0.3662464693 -1.3284388567 0.1996426664 -0.3737036082 -0.3005672387
H 1.1351983079 -1.4055681017 -1.4603086433 -0.3443661569 -0.4746287880 -0.1634906231
H 1.2044612483 0.4231700011 0.9961409507 -0.8892704544 -0.7038997557 -0.0486768281
H 0.9698040288 -1.3680544001 1.1290977695 0.0231165772 -0.1792018573 -0.0109057198
H -1.3027281856 -2.4033138985 0.3100023148 0.1729971535 0.4806574994 -0.0697798694
H -3.7676540815 -1.3429004115 -0.0445562005 -0.5011184713 0.1442380017 -0.0574715280
H -3.5366668513 2.3873706433 0.5369420272 -0.3469370670 -0.5257864289 -0.1060210441
H -3.6654965723 1.9352320072 -1.1725679901 -0.4840681008 -0.1444702930 -0.0064799755
H -4.7160512073 1.0771438729 0.0606058589 -0.3274043156 -0.1954779238 -0.0123012044
H -0.9268132585 1.8384617088 0.2061183780 -0.0980171545 -0.0755327180 -0.0494352454
F -0.6063649443 -1.7052354239 3.3872128834 -8.4711480601 -17.8433839323 3.5710821557
P 0.7368969411 -0.7431177765 3.2266806559 6.9934373489 1.0871446186 3.3445124675
F -0.6456648699 -0.8115511724 2.3007568118 -9.5317140846 9.8265566573 -17.6547900785
F 2.0917836256 0.1179048680 3.6399233789 14.9099237969 -0.4945404865 5.0944933282
F 0.8000987144 0.8956015410 3.4783923250 -13.9365684434 11.5239039870 -0.8305910513
F 0.0964626204 -1.1125802201 4.7250062006 6.2708932656 4.5109972966 11.2470698482
F 2.1964971414 -1.5474897592 3.0277773839 3.5602200696 -9.2235025749 -1.8348691337
32
energy=-36608.3385663421 config_type=IL_pair name=BMIM-PF6 Properties=species:S:1:pos:R:3:forces:R:3
C 3.9821198642 0.6974848243 0.1944185531 1.3413491135 -0.2424723840 1.0370247143
C 2.9663324808 -0.3177410836 -0.2873995913 0.0390725392 0.0260177550 -0.0216713526
C 1.5834625940 0.1465094655 0.1825280084 0.5862800146 0.3460259458 2.1345771957
C 0.6023940921 -0.8664600004 -0.3026094127 2.1909243256 0.2873412155 3.1597977668
N -0.7780175072 -0.5878548229 0.0537741974 1.8355239346 -1.3323207329 -0.3363037799
C -1.4452126267 -0.9810992136 1.1639399457 -2.8252959090 -0.8677660974 3.4452488681
C -2.7475274744 -0.4899726714 1.0947308614 1.3545726118 -2.5150916543 3.5241074320
N -2.8475705763 0.1927088058 -0.0563962147 -2.1638551176 2.1294799374 -1.5801412476
C -4.0291883180 0.8964531633 -0.5778118330 -0.6648752059 -0.7014772045 -1.7490612077
C -1.6449862014 0.1283550837 -0.6838564238 0.8525606732 2.2761810941 -4.1817906403
H 4.9799731369 0.4647781157 -0.2397200382 -0.2732948321 0.3305068222 0.3691952528
H 4.0171245811 0.5801463603 1.3166932189 0.3419273094 0.7002910229 -0.9999358251
H 3.6719313697 1.7123551187 -0.0989486141 0.2200372008 0.0545126444 0.2127598685
H 3.1868239522 -1.3142681782 0.1546609951 -0.0209663403 0.2901397461 -0.3801079879
H 2.9390423681 -0.4046280651 -1.3898979345 0.1362295148 -0.6232923525 -0.0075012780
H 1.3595662145 1.1225112459 -0.2572302873 -0.1012001748 0.4334718570 0.0981767793
H 1.6056150066 0.2188055001 1.2960102150 -0.1230791821 0.3837811533 -0.3614387091
H 0.6749063364 -0.8623421642 -1.4284483898 -0.9537773538 1.9403446762 1.2368461609
H 0.8776915945 -1.8967806513 -0.0142361257 -0.2154278284 0.4711893797 1.1303822073
H -1.0348638867 -1.5786304983 1.9723344062 0.4311120088 -0.1995465454 0.0657358096
H -3.5550843824 -0.6094466222 1.8051407282 -0.4080933611 0.0070687229 0.2252667753
H -3.7185256458 1.5769396157 -1.3865307152 0.2043084927 0.2132143599 0.1220679130
H -4.6989544420 0.1410357027 -1.0682983065 -0.0125169759 0.4152434176 0.4965462614
H -4.5539472734 1.4540293108 0.1936178570 -0.3089207073 0.2115930285 0.6318001004
H -1.3931052569 0.5771116586 -1.6364650996 -0.0833221857 0.1841848217 -0.3160912484
F 1.9585144679 -3.6839158361 -1.1204401872 -1.4482465229 -0.5516719170 6.0841071610
P 1.0560699157 -2.6880371429 -2.0976968639 3.5075618951 -5.0108833887 -3.8319090600
F 2.4757053638 -1.8699465808 -2.3384351935 1.1301661592 6.3955900526 1.4492703661
F 2.1207828581 -3.5871649307 -3.0191431394 -0.4876570068 -3.8251039607 -6.4498092862
F 0.0785453565 -1.3387290293 -2.3219535007 1.6375366694 7.0368436543 -9.8864461548
F -0.5230407669 -2.7912696379 -1.5623920216 -7.2328632498 -1.1959959664 17.4950033213
F -0.1272726513 -3.5052037305 -2.9201457331 1.5230465241 -7.0572101274 -12.8165556476
32
energy=-36564.4010820909 config_type=IL_pair name=BMIM-PF6 Properties=species:S:1:pos:R:3:forces:R:3
C 3.2213189610 1.1591787424 -0.2263390900 2.0015874126 1.9307089852 -0.7900697092
C 3.0846411173 -0.3542970395 -0.1951842008 -0.4816929319 -0.4936053808 1.9635039018
C 1.6141121461 -0.6945000025 -0.4535578359 1.4942717174 -0.7879391462 -2.0509246680
C 0.8250452023 -0.0355742506 0.6556408546 -0.6936673882 0.6679487010 0.4837159007
N -0.5879374324 -0.2632921371 0.5550327290 4.3224701201 6.0341653853 4.6905602777
C -1.2679355745 -1.2850102742 1.1036403120 -2.6202250116 -0.7487652872 3.3351044525
C -2.6053722784 -1.1011175282 0.7468929719 -1.3565800972 -2.4424174783 5.8204324164
N -2.7118831560 0.0198089067 -0.0056566419 -4.4197116463 1.1344321134 -0.9488478318
C -3.9219856344 0.5927415451 -0.5945555498 0.4736087973 -0.8184360847 0.1983128413
C -1.4678672770 0.5118025309 -0.1078361091 1.9529155969 7.6196444428 -4.7126280792
H 2.6236955791 1.6291375763 -1.0389558512 0.0555441898 -0.2907767008 0.4069895520
H 2.9470688519 1.6245354648 0.7442334956 0.2645499359 -0.1042576623 -0.5069342594
H 4.2926254925 1.4063874920 -0.4736676251 -0.8265440137 0.1202544621 0.5481307893
H 3.7708583025 -0.8425638195 -0.8836073414 0.3509617114 -0.3396723592 -0.2471074085
H 3.2510095985 -0.6745226712 0.8719910333 0.6858987223 -0.1167512570 -1.0263879200
H 1.3699716967 -0.2703320735 -1.4471030507 -0.4857730931 -0.1298388560 0.2726325276
H 1.4795924372 -1.7810694237 -0.5117088773 -0.3498432049 -0.1910843652 0.2114386468
H 1.1970425087 -0.3676280696 1.6391103049 0.0657236996 -0.1903692363 0.1969048203
H 0.9982418202 1.0454439407 0.5730361980 -0.1144681716 0.2825588903 0.1760277252
H -0.8875330761 -2.1135308836 1.7131873592 0.1097074893 1.1070029789 1.7633834724
H -3.4245382588 -1.7620467769 1.0347157123 -0.2935318074 1.1170585513 0.4990835303
H -4.7762932069 -0.0020343293 -0.2091026698 -0.0027498187 0.3333830911 -0.3162947611
H -3.8260528543 0.4860757577 -1.7012324469 -0.6243424364 0.5177388522 -0.0000492975
H -3.9995747812 1.6490660871 -0.2704683161 -0.3152825256 0.1899472341 -0.3987454779
H -1.1982501842 1.4233412357 -0.6568223642 -0.1308097990 -0.5697385215 0.2485074844
F -3.2723137817 -4.0485875600 0.3028516394 -30.8920856714 -6.7249696647 85.4420366696
P -1.8759797702 -3.1503618661 0.0102124777 22.9132754875 19.6439743807 13.7776976075
F -2.8937122762 -2.3005987449 -1.0260156959 0.2627688452 5.3411914971 -3.4214714079
F -0.6201405412 -2.0378676948 -0.1655062613 2.5812146244 -3.7011514475 -5.2722275715
F -0.6052839188 -3.9837945560 -0.6925189077 7.8558543015 -1.6558812782 -2.1897834510
F -3.0767374809 -4.0081598192 -0.7630992639 -64.8488155841 28.7230961049 -77.2710233837
F -2.2321398858 -4.5428428659 -0.8682026489 63.0676710820 -55.4619990637 -20.8896452582
32
energy=-36598.6315580440 config_type=IL_pair name=BMIM-PF6 Properties=species:S:1:pos:R:3:forces:R:3
C -3.9787837550 0.3335481024 0.1347271113 -0.1911990676 1.0218058834 -1.0188686931
C -2.8793725398 -0.7078327662 0.3684677105 -1.9860125797 -1.1479618996 -1.0448927523
C -1.5587808995 -0.0701678850 0.0463167750 0.4230862529 1.0598381701 0.6624223715
C -0.4533247459 -1.0927985976 0.2735875670 -0.3922288836 -0.3482351939 0.1294657929
N 0.8525887135 -0.5280680766 -0.0237912403 -1.9433935300 -1.2621925846 1.0149324858
C 1.4610911776 -0.5566032746 -1.2241653398 1.5129010658 -0.9181760440 -3.4846720553
C 2.6797009868 0.0794629586 -1.1042241244 -0.9682382187 -1.8114343177 -2.6027453647
N 2.7668095849 0.4765169402 0.1843900386 4.0912129640 1.9023125595 1.1578661368
C 3.8966436953 1.2003064172 0.7834602480 -0.1612082357 2.4002731377 -0.0379221425
C 1.6631150256 0.1168622439 0.8637381280 -1.9137392467 0.3277199969 4.2716232091
H -3.6083810419 0.9536156346 -0.7326731332 -1.0353248282 -0.4958668895 0.5851289144
H -4.0758798185 1.0229985469 0.9849944156 -0.2531521791 -0.0863475039 0.1274618200
H -4.9439665169 -0.1627360839 -0.1064072248 0.2849324344 0.5331800752 0.1707724495
H -2.9430125945 -1.1175052785 1.3784453140 0.2005881185 -0.2715836697 0.3477118583
H -3.0868169945 -1.5150185499 -0.3788366055 0.3707125662 0.0709159277 0.6966736475
H -1.4098890277 0.7744742913 0.7575689605 0.1348031382 -0.0180602389 -0.6778853503
H -1.5852066815 0.2681662311 -1.0016082149 0.3028831265 0.2610826491 0.1065289280
H -0.6101000395 -1.9315812893 -0.4249774397 0.0169034514 -0.4596760291 0.3560652250
H -0.4891716532 -1.3715871740 1.3441792249 0.2011224747 -0.5455295181 -0.1921175155
H 1.0166452296 -1.0197368655 -2.1092972591 -0.0384558581 -0.1260369871 0.1314365098
H 3.3978157662 0.2198024836 -1.8871046030 0.9989805043 0.4030257651 -0.3912811014
H 4.6462080414 1.4302409330 -0.0010815479 0.0490692381 -0.5384789776 0.3102088591
H 4.2954889310 0.7057663550 1.6738899665 0.4142662733 -0.5781038721 0.1092919413
H 3.5172594312 2.2038680744 1.1261652726 0.2014295183 -0.5131466860 -0.0867659492
H 1.4293197251 0.2880066289 1.9082555996 0.1320812785 0.1002068565 0.1250853009
F 0.5032065290 2.4726264195 -2.7737178458 -16.6331226541 0.7940205866 19.5766755339
P 1.6179184938 2.1728202499 -3.9510533930 10.6075053672 -4.7304535922 -13.3664156570
F 3.2428045367 2.1913072047 -3.6278076044 7.2683453372 -3.2977118209 -1.0635584550
F 1.3908916590 1.2319765724 -2.5682528483 3.7559897109 -11.8714106032 5.2366441028
F 0.1000412421 1.4975710141 -4.0570003249 -6.5349506238 -8.0759525070 -9.2781075491
F 2.0368992229 3.0240190915 -2.5661234143 10.8317655703 7.3102157543 7.0502914105
F 0.6464021059 3.4995204307 -3.5814376265 -9.7545536493 20.9082917164 -8.9286122442
32
energy=-36604.3199543663 config_type=IL_pair name=BMIM-PF6 Properties=species:S:1:pos:R:3:forces:R:3
C -3.3107783147 0.6227542515 -0.7723897222 -1.5698693031 -0.5389375275 -0.7149146770
C -3.0989752387 -0.0232120825 0.5837898441 -0.1580021145 -0.8066661505 0.6027758798
C -1.6228624247 0.1300515757 0.9282334802 -0.4136275358 0.6652198604 1.6132563969
C -0.8345076504 -0.5742507706 -0.1560364004 -0.3336182555 0.1588609680 -1.4181510886
N 0.5978012179 -0.4969602642 0.0629433045 -2.7149194343 -1.0561397358 -0.0075715469
C 1.2979491043 -1.4052686364 0.7635809881 3.4689551031 -3.3844526676 2.9229424762
C 2.6468962134 -1.0378224026 0.7849734815 -2.6045564956 -3.5141794346 1.7756830344
N 2.7054219452 0.1189980159 0.0701023431 4.6798820460 1.2506555098 0.8755236888
C 3.9499146570 0.8337184561 -0.1458904291 0.5206735996 1.9252987997 -2.5407799578
C 1.4713986003 0.4402192690 -0.3618979619 -1.8234095331 4.6909152257 -4.3780683364
H -2.6322731393 1.4863878683 -0.8384358670 -0.3092705995 0.3284563475 -0.6416334035
H -3.0749395672 -0.1442324191 -1.5543915236 -0.3569344094 1.0155797141 0.1920021013
H -4.3921736590 0.8881569508 -0.8001723505 0.6499304045 0.2923178219 -0.7763946612
H -3.3237591464 -1.1084139273 0.5366422904 -0.2063966167 0.2693431128 0.1412634511
H -3.7287151854 0.4247668512 1.3628674278 -0.0804797417 0.1308410824 0.1107995028
H -1.3465375987 1.2018276843 0.9898613029 0.0004902000 -0.2324355302 -0.1728123533
H -1.4794509942 -0.3009493912 1.9177945299 0.6276208033 -0.3605451726 0.4703752300
H -1.0798709544 -0.0823855232 -1.1237928263 0.4816185522 0.1573686747 -0.1213938911
H -1.1131698841 -1.6316581002 -0.2375991922 -0.1072896045 -0.3897527362 0.1069262371
H 0.8695070042 -2.2966473106 1.2428424608 -0.1996958551 0.2860526220 -0.1994994031
H 3.4667738722 -1.5632270375 1.2677555005 0.3576795426 0.2117475446 -0.0229311463
H 4.5063027327 0.3875419064 -1.0208627238 0.0933437626 0.0725849216 0.8044741195
H 4.5772277676 0.9255611947 0.7429916926 0.2803898093 -0.5035645476 0.5125015896
H 3.7276314065 1.8880677490 -0.4778482625 -0.1140512732 -0.6815223660 0.3165613608
H 1.2211892357 1.3169760924 -0.9587051897 0.0189261681 0.1004775729 0.3282008844
F -0.8720825340 3.1740282062 -1.1186918456 -1.4804844580 0.9137209321 2.6971596147
P 0.0201941298 2.9602278875 -2.4999774740 -20.4123064017 3.4735656243 1.9961882801
F -0.3948475470 4.5279286354 -2.9080734146 0.8685369210 3.5272067929 0.5535337980
F -0.9115430205 1.5849322766 -2.6028154762 -0.4746487877 -7.6921579603 5.3499208953
F 1.6527752138 2.6890260792 -2.2022139231 17.3468709178 -1.3799646960 25.6337383275
F -0.8079254932 2.7762035300 -3.9442471922 0.3691291180 3.4648365134 -6.4172793426
F 1.3973262522 2.6622306817 -3.4203032053 3.5849187109 -2.3953502474 -29.6036902573
32
energy=-36599.0324808223 config_type=IL_pair name=BMIM-PF6 Properties=species:S:1:pos:R:3:forces:R:3
C 3.9890997494 -0.1685156377 -0.7958354316 2.1947303478 -0.3148298343 0.7293511162
C 2.9347374768 0.4355684916 0.1027190553 0.4671861181 0.0312291738 0.8222155852
C 1.5554135893 -0.1257236702 -0.1886788758 -0.1562924398 -0.4994151150 -0.9055258925
C 0.6133410862 0.5657469460 0.7788763429 0.7177798908 0.9546290811 0.8046828994
N -0.7505877047 0.1244659052 0.6142170104 0.5597290146 -0.2515622647 1.2939255617
C -1.3299367303 -0.9167871704 1.2599251897 0.1663498718 -2.8375947686 2.3051604373
C -2.6397615653 -1.0495380639 0.8578176690 0.0062212980 -3.0083849063 4.3141466554
N -2.8561074863 -0.0701148777 -0.0479374947 -4.9390188403 2.2293692428 4.4769790450
C -4.1143723575 0.1727889886 -0.7447296489 -6.7874386818 7.1009123736 2.6474825465
C -1.7163942709 0.6306683302 -0.1886327427 2.9303929124 7.6465872059 -0.5237317880
H 4.0309837666 -1.2627996125 -0.6211574389 -0.1117050318 0.2609205052 -0.5309364669
H 3.8596355522 0.0854467905 -1.8499866454 -0.0729478539 -0.1328516660 -0.3064446967
H 4.9666677828 0.2343996036 -0.4292411762 -0.3377219341 -0.2766775078 -0.6812500582
H 3.1870530867 0.1549579106 1.1446008169 0.0075395880 0.2863032064 -0.0956075385
H 2.9496080900 1.5317577172 0.0396445453 -0.0987015968 0.1882620476 -0.0777384045
H 1.5498308909 -1.2066925569 0.0590260193 -0.0777068862 0.1429427934 -0.6430643181
H 1.2524960291 0.0786987578 -1.2445858514 0.1107917179 -0.4347035624 0.5288147608
H 0.9334140707 0.2718954191 1.7984364461 -0.1123483490 0.4248495570 0.0710396775
H 0.7234790705 1.6657503448 0.6329743954 -0.4645342491 -0.2551823282 0.3158778046
H -0.8094786936 -1.5338637991 1.9811688793 0.3313120621 -0.0635567692 0.2720671889
H -3.3859684706 -1.7879119766 1.1842343136 0.1796289452 0.5246148180 -0.2304312865
H -3.9339127866 0.3032785778 -1.8495615148 -1.3374158325 2.6922395304 1.2937082309
H -4.6434285611 1.0743459153 -0.3556116322 0.4973554114 0.8643157153 0.9513466762
H -4.7960399484 -0.6877542717 -0.5713182744 -1.3649932669 1.4092422358 1.5891546085
H -1.5697716659 1.4799319384 -0.8429979671 -0.2055603126 0.2053499667 0.0309157610
F -3.0024267623 -2.8950871419 -0.8184556033 0.8822387252 -1.5271767561 0.7989713074
P -2.6236005426 -2.0365057668 -2.2126590761 -1.3141772545 -6.2420189895 0.9241679732
F -1.0722073283 -2.5614336490 -1.9187254138 1.6175954015 -1.1829227550 -0.4623329012
F -4.0194615646 -1.2591722057 -1.6987330523 -7.8084524096 -3.0070224984 -1.5908257981
F -1.8004771701 -0.6481689392 -2.7014130658 9.1240118350 0.8431486259 -18.6073683529
F -2.5148198906 -0.5732470895 -1.4372224348 6.9892410237 3.1858075034 9.0105476892
F -4.0875962441 -2.5908875482 -2.7612881083 -1.5892179162 -8.9581086509 -8.5166519100
32
energy=-36593.0266389128 config_type=IL_pair name=BMIM-PF6 Properties=species:S:1:pos:R:3:forces:R:3
C -3.2689809422 0.7135081268 0.6665171328 -0.0618239905 -1.0139831297 0.2491537241
C -1.9872543828 0.4266457860 -0.1268576142 -1.0057137989 -0.6842730393 -1.5561737295
C -1.7508089396 -1.0745847445 0.0438707381 -1.9596464141 0.2126253867 -0.0102885742
C -0.5165496733 -1.5336727649 -0.6801913366 -0.4301522538 -1.7032806440 -0.6188043519
N 0.6644084934 -0.8516486341 -0.1869451420 -1.2233764577 -1.9350105196 -0.3981368203
C 1.4448171542 -1.2937333476 0.8411085671 2.5726150627 -0.8008812946 2.8213014023
C 2.4726831307 -0.4018370590 1.0356934788 0.0388305476 -3.2278675537 2.0608091956
N 2.3000779124 0.5772092258 0.1151828012 1.9463338316 3.3148251592 0.6338028493
C 3.1450204408 1.7345511369 -0.0584944050 2.1873780592 1.7619972974 -0.5677285232
C 1.2100073348 0.3158840196 -0.6295890082 -2.4174937078 2.5212413512 -4.8820881602
H -3.0842302692 0.3076633980 1.6819867571 -0.3957852242 0.7703962112 -0.0012707201
H -3.5384677715 1.7742823589 0.6711417427 -0.2618745507 0.0783004220 0.1854058719
H -4.0592305536 0.0681850946 0.2249095492 -0.1990347888 0.7232630072 0.2073789283
H -1.1247152299 0.9739979588 0.2861170049 -0.0887442565 0.5475982715 0.6986325140
H -2.1558160506 0.6928958842 -1.1781517335 0.0809109088 -0.1635942697 -0.3431248693
H -2.6196858152 -1.6401647182 -0.3498522335 0.1837706339 -0.0439279567 0.0081088912
H -1.7093925661 -1.2889552671 1.1158104641 0.3494755850 -0.2208828659 0.2980010692
H -0.4121481748 -2.6147689530 -0.4454966605 0.4185503469 0.0490429590 -0.5948899569
H -0.6617564031 -1.3555795913 -1.7656826124 0.4237597057 -0.1744176995 0.0497142147
H 1.3250058553 -2.1858167512 1.4383001584 -0.6335268107 -0.6203431473 -0.0634887854
H 3.2856711550 -0.4226894612 1.7608215925 0.0768052414 0.1150740484 0.0331138492
H 3.9226807841 1.7849064987 0.7324859113 -0.4873302272 -0.1738352894 0.1137828828
H 3.7355418469 1.6842273272 -1.0158656207 -0.5850337988 0.0088933353 0.1646788385
H 2.5647580331 2.6783628621 -0.0261755017 0.0341869489 -0.1612610709 -0.1877294265
H 0.8183646311 0.9311316146 -1.4549414421 0.2798195117 -0.3192680153 0.4743234421
F 1.4746607278 1.9110523666 1.9127627227 2.2460382257 -7.7066654503 -10.7988605022
P 0.0655450782 2.2416703748 2.7702218703 0.9009965825 -23.0051348093 11.7420412088
F -0.5616712161 3.4995000253 1.8706706115 -53.9662663307 -1.0456570579 -26.2401443125
F -0.8875473844 1.8118191995 1.4519937161 0.5560472130 -5.0242184926 -3.9435924895
F 0.3933177301 3.7998538847 2.2678773926 42.6419578191 30.5901455433 11.2045247288
F 1.4873047963 3.0509677228 3.0798807226 13.3444512505 5.0199861172 16.1020560631
F -1.5064112034 2.1847375344 3.3091356428 -4.5664545124 2.2842473966 3.1550951265
32
energy=-36603.2566811310 config_type=IL_pair name=BMIM-PF6 Properties=species:S:1:pos:R:3:forces:R:3
C -2.9895322045 -1.4467690842 0.4490356490 -0.4736216448 -1.0768743090 1.5108291828
C -1.9072197275 -0.3911820234 0.4897210566 1.6879332135 -0.4205523836 0.0124407270
C -1.9528026932 0.4978457004 -0.7349914291 -1.7549487498 -0.0149503115 -1.2316919564
C -0.8469622580 1.5086618381 -0.5919543765 -0.8724481720 2.7872908498 1.1373490187
N 0.4558240647 0.8863544563 -0.5039818143 -1.5548398219 1.4591385333 -2.8362513021
C 1.2046417958 0.6211782702 -1.6019386675 2.5420464485 -1.1050118577 -2.9963280416
C 2.3895608131 0.0351165141 -1.2047054716 -0.3501898841 0.6981940467 -2.7226040847
N 2.3423522281 -0.0488034829 0.1551041627 0.9127249452 4.8237634493 -1.4585369864
C 3.3761414898 -0.5996309559 1.0079661708 15.4924604968 8.8422741814 4.9694665686
C 1.1658458984 0.4720312861 0.5438105378 -1.0369366653 0.7258323421 6.0461099204
H -3.2453506667 -1.7222027994 -0.5863376708 -0.2527110638 -0.0044728199 0.2388034730
H -3.8472519270 -1.0602011866 1.0386669146 -0.1647856523 -0.4420245904 -0.7180943396
H -2.5968813639 -2.3352907581 0.9893426389 -0.4912426796 0.0754148837 -0.3509789146
H -1.9690150725 0.2519123467 1.3771518421 -0.1641057126 -0.1231982238 0.3042482814
H -0.8875473459 -0.8549483886 0.4957519754 -0.7484682855 0.0141971072 0.2210717343
H -2.9245232664 1.0357483366 -0.7911203665 0.2848078590 -0.0531845631 0.0471575770
H -1.8748176958 -0.0864831219 -1.6755729347 0.2248665506 0.0921269377 0.2833843187
H -0.9926573963 2.0367083184 0.3850818702 -0.0235480428 -0.0500437861 -0.4646754060
H -0.8774395432 2.2884476006 -1.3843672313 0.3876940000 -0.2980604013 -0.0280020405
H 0.9474588039 0.8212709158 -2.6228465015 -0.7145046710 0.3797162793 -0.7116743907
H 3.2155002473 -0.3031602160 -1.8283160894 0.2472541112 -0.0965995034 0.1532738055
H 3.6805594157 0.1143043681 1.8008908833 -0.0267762002 1.8170034306 -0.7873114650
H 4.3036704684 -0.7465303239 0.3908301032 -0.8866232126 0.2279846706 0.1093614896
H 3.0256313467 -1.5356333600 1.4745333195 6.6982218252 2.7984031561 6.2292732494
H 0.8048145888 0.5612557495 1.5686212106 0.2650058937 -0.0798302774 0.1067307006
F 1.0592030834 -2.5277063167 1.9751909770 -4.2155341780 0.5144660665 1.4986106819
P 2.1854238895 -3.3444103276 1.0274647658 -5.1914120316 -4.9384566058 2.6339317843
F 3.8250213662 -3.6467107267 0.7890086765 -0.1530221774 0.2094388249 -0.6494395560
F 1.3260770238 -4.6885163020 0.5184228233 1.6537481857 -14.3919023668 7.1029622581
F 2.2497226402 -1.6748431201 0.8056118144 -13.5455642009 -13.5060803523 -9.9659551417
F 1.1762934440 -3.3608059671 -0.3214801816 -1.2661378229 13.6605690733 -10.0322244306
F 2.0606804288 -4.1507659861 2.4865806471 3.4849906148 -2.5237310723 2.3447428058
32
energy=-36567.6369882159 config_type=IL_pair name=BMIM-PF6 Properties=species:S:1:pos:R:3:forces:R:3
C -3.2981305806 -0.2479486612 -0.8916267342 -1.4207336735 1.3278163614 -1.1426656141
C -2.1380335113 0.4712837407 -0.2309748009 0.6535656452 -0.2120081506 -1.6462817417
C -1.6947740190 -0.3333874100 0.9498568288 -0.8520224756 -1.9922170643 1.1450596572
C -0.5422863574 0.3754803183 1.6196040378 0.8084707596 0.3061008844 2.2597248812
N 0.5620812082 0.5179564980 0.6952125250 -3.3097126610 0.8977190594 2.7514214622
C 0.8480224324 1.5129298438 -0.1655127336 2.0230180790 3.0179909068 -3.3973450807
C 2.0266019232 1.1996524771 -0.8502434958 -3.3389149904 4.3690734544 -0.3285313345
N 2.4198982175 0.0064005548 -0.3726441665 5.1345681994 -2.6310031078 -2.7150777651
C 3.6094613077 -0.7556983236 -0.7745580810 0.6491867258 0.7713929065 0.7424914302
C 1.5301343387 -0.4166068746 0.5720292034 1.1735289738 -6.9359234098 3.2216009918
H -3.7861360563 0.5092722681 -1.5476832394 -0.1348751920 -0.7506952528 0.0217647527
H -4.0205034160 -0.5409263789 -0.1165445480 -0.1144099857 -0.3003044211 -0.2302177692
H -2.9846361725 -1.0939575779 -1.5034283472 0.0055981249 -0.4430120803 -0.0024681936
H -2.4823397612 1.4511940238 0.0935731718 0.1032642191 0.6390694602 0.1037358273
H -1.2733724859 0.5682782205 -0.9417959840 -0.8277752733 0.2764498420 0.4745577897
H -1.3682584714 -1.3654784168 0.6459245114 -0.2236721016 0.7612149171 0.1404909691
H -2.5564999634 -0.4566466537 1.6472703373 0.4553734782 0.0194599545 -0.1080798770
H -0.2202463532 -0.2032047218 2.5357925318 0.0917904535 0.4025107759 -0.7134863752
H -0.8154439877 1.3847187728 1.9641293132 -0.4235530347 0.2238799321 0.0522055067
H 0.2389891654 2.3921981143 -0.2769357532 -0.4293818408 0.6118740750 0.0304004349
H 2.5139694670 1.8008245000 -1.6073229876 0.4202910804 -0.0203957037 -0.2477201977
H 3.3671348000 -1.8276546281 -0.9217891052 -0.0088765571 -0.0392111520 -0.3455008757
H 4.0451210830 -0.2627783079 -1.6683643913 -0.0658518254 -0.4939487831 0.0215004070
H 4.3837149024 -0.7174457516 0.0443025363 -0.1768440460 -0.1433305688 -0.3794931324
H 1.6355322902 -1.3557432451 1.1017293711 -0.1951072796 0.2435916810 0.1324193358
F 1.8122924254 -1.4265040806 -3.3107074890 69.8890466463 40.1315777361 20.8860577242
P 1.8395149031 -2.4221414040 -4.6315077045 14.2511747908 -11.3146516227 -31.3732927798
F 0.9900970027 -3.7877500482 -5.0665218834 -2.4583260136 -2.5578424825 -2.3164164574
F 0.9012944939 -2.8329950438 -3.2946219105 -7.6589703317 -84.9573228372 20.6502420903
F 0.8488482769 -1.7700798195 -3.4690880765 -78.7707433783 58.7343115139 -8.9059874726
F 3.4831285564 -2.2087024275 -4.4294937861 10.2006090861 20.7748803752 0.4987149729
F 2.9632199109 -3.6316537534 -4.4342681804 -5.4521341466 -20.7294578361 0.7221817776
32
energy=-36589.0270229761 config_type=IL_pair name=BMIM-PF6 Properties=species:S:1:pos:R:3:forces:R:3
C 3.2885565387 0.1488589718 -0.9707868467 0.5758482722 -0.3141547910 -0.3213733576
C 1.9393833932 -0.4347706579 -0.5348699821 0.1761453188 0.2570407635 -1.5216138608
C 1.8625065165 -0.3448691142 0.9643207681 2.3704850711 0.3723326400 0.8280351856
C 0.5938955067 -0.8797911761 1.5401093036 0.6799022217 -1.5107177501 1.9829009661
N -0.6003793593 -0.2212006991 1.0894339007 4.2191892738 3.5079178444 2.6457432181
C -1.1482516896 0.8432316299 1.6944993244 -2.7986153066 4.9090041412 2.0906739048
C -2.2847480680 1.2027342147 0.9810224512 0.9057580409 3.4321001196 4.4979709653
N -2.4126707291 0.3488380839 -0.0517404869 -1.1656444648 3.4900972512 -3.5005656962
C -3.4811451263 0.3726026498 -1.0570498321 0.2686965875 0.9237509251 -3.3777390893
C -1.3783241200 -0.5091568229 0.0323244008 4.7833256403 2.8193606874 -3.0682843651
H 4.0953003256 -0.5808250110 -0.6981373447 -0.2481499230 0.9449845336 -0.2326404331
H 3.3892167932 1.1149892832 -0.4378620384 0.5878799021 -0.2276538079 -0.4385015189
H 3.2573883096 0.3025031167 -2.0663288729 0.4788807801 0.0986073484 0.2681356718
H 1.1747040359 0.1717169988 -1.0671122439 -0.2615509618 -0.6839972512 0.4466352152
H 1.9204113777 -1.5026822980 -0.8131839443 -0.5635769235 0.1655385291 -0.3559089612
H 2.1078642946 0.6704362942 1.3282950991 -0.3861075827 0.0133390917 -0.1530978716
H 2.6788041667 -0.9927931738 1.3496215027 -0.1104858568 0.2119752729 0.0773559907
H 0.7031270925 -0.8107462035 2.6521131799 -0.6425947495 0.1631270194 -0.3557038979
H 0.5340748523 -1.9622622641 1.3193610677 -0.2247836463 0.0947129396 -0.2523573649
H -0.7600854547 1.3254837874 2.5825554402 0.2267311600 0.0045751597 0.3158160475
H -2.9532779259 2.0254868915 1.2122972220 -0.3795027937 -0.0213291224 -0.1562527571
H -4.2410204075 -0.3927696767 -0.7290453181 0.2799518286 0.6905843168 0.0220594911
H -3.0922133389 0.0608768709 -2.0268362197 0.5805924798 0.7617385446 -0.7246426522
H -3.9593477888 1.3542084137 -1.0267294006 0.2426146463 0.3682915380 -0.4316070466
H -1.2337691952 -1.3101001095 -0.6812221503 1.3419126657 0.9886172648 -3.4647310089
F -3.4853206019 -3.2771760879 1.2451217676 21.0137581919 -24.6505871590 21.4483061537
P -3.0283770633 -1.7494793319 0.7864363767 4.2144381919 13.4753190732 4.0146744125
F -4.3186366435 -2.7665430899 0.5704876308 -33.0492950728 5.8420601184 -19.8978515490
F -3.1246669590 -1.4574274874 2.4363732412 -0.3473685435 0.1640026961 2.2891154734
F -4.3402878173 -0.7544549108 0.5486798879 -7.4239466963 2.2000154308 3.1473532344
F -1.3717909149 -1.9582149629 0.8223845749 15.1334082958 -2.1941574753 26.5358240897
F -1.9764887474 -2.2043539870 -0.4501707741 -10.4655675926 -16.2935129235 -32.3465999897
32
energy=-36601.0909673311 config_type=IL_pair name=BMIM-PF6 Properties=species:S:1:pos:R:3:forces:R:3
C 3.8719344241 0.8922384134 0.4088232751 -0.4266573146 2.6015541778 -0.4086106779
C 2.9590032903 -0.2771275097 0.1787653077 0.0584257917 -0.7044146818 -0.2088220551
C 1.5135360861 0.2114003179 0.3135976127 -0.0515655648 -0.2189969642 -0.5377825976
C 0.6346576746 -1.0190557148 0.0701472160 0.5653067688 -0.0330402258 0.4811680244
N -0.7684270835 -0.6361738823 0.1815423904 2.8660187512 -1.4764273528 -0.6300309168
C -1.5229941484 -0.6488561592 1.2980628093 -3.5532782532 0.1222646362 1.9357066837
C -2.7820556233 -0.1993460641 0.8861075271 0.4534120371 -1.3007681365 4.0485276556
N -2.7514789480 0.0646993008 -0.4328977428 -1.9563012288 1.1312722679 -1.8388124442
C -3.8816622591 0.5573476067 -1.2334715936 -0.2942717675 1.2769750726 0.3398527553
C -1.4998665354 -0.2065083491 -0.8723504508 1.2660087625 0.6610489935 -4.3658054133
H 3.4846701253 1.4592279068 1.2985245195 0.8673990235 -0.4667729484 -0.4511334163
H 3.7111830561 1.5768762062 -0.4692336013 0.6814627974 -0.3035657895 0.7347396852
H 4.9230456207 0.6232012627 0.5064951728 0.4020922101 0.0375133232 0.1045470134
H 3.1844587376 -1.0711924020 0.8943262654 -0.1804659765 -0.3792173993 0.3395964537
H 3.0813045759 -0.6982015323 -0.8295023650 0.2376542462 -0.0851708914 -0.1054050849
H 1.3288202677 0.6514073964 1.3084038293 -0.1736779623 0.1894398174 -0.1854478346
H 1.2641585087 0.8949647965 -0.5214664648 0.2570380214 0.4642064938 0.5870792102
H 0.8679000898 -1.3809992394 -0.9473007648 -0.3470629284 -0.4650535112 0.1021635192
H 0.8481443667 -1.7582944043 0.8526458631 -0.0015250580 -0.5800271797 -0.0822244112
H -1.2251985075 -0.9416849266 2.2969337865 0.4340341242 -0.3772871748 0.2716836726
H -3.6522903486 -0.0724955462 1.4899485216 -0.9699092122 0.1709966281 0.5005550313
H -3.4970768420 0.8323472101 -2.2264201447 -0.1989557764 -0.1618900494 -0.2324471462
H -4.3156115955 1.4787373353 -0.7465061936 0.2639387902 -0.6906426789 -0.3371463523
H -4.6380955375 -0.2309977733 -1.2619390764 -0.5753218016 -0.2499585321 -0.4113445525
H -1.1380593949 -0.1015142496 -1.8858501233 0.0896441204 0.1122581323 -0.2722659409
F -2.5874082623 3.3151831450 3.0170456739 -2.6613220284 9.7735605360 1.7969814532
P -1.6269033798 2.2013508576 3.7932442562 12.5515960975 9.1937185126 8.9628516345
F -0.0007683137 2.3236307296 3.4910560002 4.2904183027 1.8654277082 -0.1901166700
F -2.9802232721 1.4042284447 4.3058318561 -10.7256059171 -6.9912592984 11.8345816319
F -1.5314647954 2.1340341170 2.1136496299 3.1742251712 6.1312842128 -15.2445605398
F -2.8514578085 1.5198246185 2.9020556905 -16.1237708150 -3.6556592109 -11.5495466129
F -1.3286559950 0.7912108751 2.9335088672 9.7780167292 -15.5947244396 5.0211040528
32
energy=-36573.0759529901 config_type=IL_pair name=BMIM-PF6 Properties=species:S:1:pos:R:3:forces:R:3
C -3.4042119904 0.9166236736 -0.0125467799 -1.1246361426 1.6078516531 -1.3254759565
C -3.0386025458 -0.4898453230 -0.4244747292 -1.0976541724 -1.1746960215 -1.0800107803
C -1.5354498190 -0.6290066701 -0.6533648666 -3.7954048100 1.1011373442 -4.8334120581
C -0.7703984862 -0.3010435144 0.6093600593 9.1756092838 31.8889218659 -14.4065922100
N 0.6512122329 -0.4079599230 0.4768821130 -3.9988470450 3.1767121043 2.7308403880
C 1.4630551315 -1.4700009880 0.6850683748 5.0211561842 -3.4408408894 -0.8289781580
C 2.7553731037 -1.0445904909 0.4163609568 -0.3843431141 -3.7826301376 0.8090175291
N 2.7108174432 0.2486425775 0.0546942393 4.7052251410 0.9380364120 -0.7628484372
C 3.8132744545 1.1325434773 -0.3223111242 0.8977559985 0.6879208360 -0.3503228869
C 1.4308955572 0.6438780293 0.0892471551 -3.0694662042 6.3391782185 -1.3966534629
H -3.3882484553 0.9985384099 1.0786208049 -0.0165769429 0.6598394121 0.0876330669
H -4.4186893020 1.1666243321 -0.4407762785 0.7332612169 -0.1125844570 0.9700644119
H -2.6964718024 1.6047693204 -0.5360100612 -0.3727977722 -0.0108416347 0.8867461355
H -3.3758804512 -1.2158518034 0.3416812998 0.1000418540 -0.0773473725 0.0730479144
H -3.5734667900 -0.7137547654 -1.3638049942 -0.0779577614 -0.2563833528 0.0294685777
H -1.2473427397 -0.0192279863 -1.5211233032 0.1354882792 0.2954643692 -0.0780937280
H -1.3866890350 -1.6953259647 -0.9183168903 0.5394000167 0.4404926713 -0.4515890746
H -1.0409880796 0.6906572850 1.0146762045 0.5133875033 3.5154527244 -1.2129691447
H -1.1332014578 -1.0314739877 1.3795774765 -21.5382486066 32.4052401842 46.6326606843
H 1.1317465126 -2.4596422070 1.0036712399 2.3936502969 2.7196596945 -2.1800230501
H 3.6440743006 -1.6546272114 0.4875479969 0.6891649501 0.0237447505 -0.1177936783
H 3.5499144329 1.7439478218 -1.2284632384 -0.0880718348 -0.1716080026 0.7125177480
H 4.7042630651 0.5431063585 -0.6030564834 -0.0253338824 -0.1469981131 0.2204350076
H 4.0782501452 1.7982134185 0.5408893997 -0.0452122409 -0.0204545540 -0.5336318863
H 1.0767645750 1.6448061317 -0.1540285714 0.0591941627 -0.3439655359 0.0554575837
F -2.5884257352 -2.0461561237 2.1182132807 -2.5216535137 1.8911695873 -1.4040879193
P -1.3142163663 -2.9670774663 1.5293085795 -27.3738550043 -5.9770778826 -0.8116757253
F 0.3162222390 -3.1442610037 1.7735252544 36.3371636187 47.9494076315 15.4127160467
F -0.9341016132 -1.4703743325 0.9293120015 17.6508849160 -53.8756612260 -31.6663604025
F -2.2770362348 -4.3192794233 1.3525719613 -1.8497075827 -1.8263900469 1.5500629037
F -0.0923764208 -4.0920936496 1.5866812451 -13.3209927405 -62.9945964796 -8.8453049489
F -1.1197411495 -2.8973080837 3.1942402493 1.7467877118 -1.4206005165 2.1139507071
32
energy=-36609.8652891365 config_type=IL_pair name=BMIM-PF6 Properties=species:S:1:pos:R:3:forces:R:3
C 3.7906279633 -0.9397787017 -0.5642023639 1.3979057049 -1.7614849682 -0.6734629486
C 3.0065912017 0.2914719355 -0.2070554658 -0.1336629191 1.2483649974 1.5946850425
C 1.5433900245 -0.1369237503 -0.0933910683 1.1747212023 -1.6110609077 -1.3268145828
C 0.6495839326 1.0093020644 0.2614912759 1.5022561072 2.1355284511 -1.4817123331
N -0.7018062528 0.5596115184 0.3554409779 1.6701601277 1.3728357347 1.6326387308
C -1.2804535364 0.1001026614 1.4808154124 -3.2580238908 -2.5380710510 3.5264248459
C -2.5910376706 -0.2402735249 1.1828859191 1.4540912872 -0.7358563920 3.5214927056
N -2.7909568220 0.0192708305 -0.1285926254 -4.3888172673 -1.1295078498 -0.3535471977
C -4.0450319763 -0.1975073267 -0.8563359053 -0.0681977449 0.2364140070 -0.2977029152
C -1.6414506036 0.5001182026 -0.6082820540 1.5720523542 2.3519062689 -7.7177819112
H 3.3119790655 -1.8441467410 -0.1275919171 0.2167315888 0.3680816852 -0.1877601523
H 3.7755589411 -1.0586290416 -1.6704372239 0.4157203178 -0.1859490818 0.4887892758
H 4.8290279361 -0.9212656187 -0.1627455296 -0.3114627752 0.1284752333 -0.5977754249
H 3.2815149039 0.6315843859 0.8176797264 0.2687846115 0.2503464434 -0.5573849756
H 3.1447536695 1.1189506410 -0.9295044647 0.0439311004 -0.1439912004 0.2083613361
H 1.5382130749 -0.9594060167 0.6309736697 -0.5273076661 0.0005911287 0.3499832310
H 1.2681328651 -0.5687803653 -1.0721017604 -0.4148884587 0.0135954295 0.1373324653
H 1.0171467326 1.5437589609 1.1489934632 -0.4653863540 0.0492577923 0.7438518368
H 0.7190068149 1.7399461041 -0.5798417486 -0.1991512151 -0.0667871269 0.3208117483
H -0.8671657475 -0.0142606708 2.4761641979 0.8900238924 -0.1062332812 -0.1240985903
H -3.3607457609 -0.6389208646 1.8157343906 -0.5229518852 -0.2976029307 0.5241730635
H -3.8178090783 -0.9124873528 -1.6590080508 -0.3862912664 0.0834882691 -0.6924460020
H -4.7883032766 -0.6438436852 -0.1939215102 -0.1530810053 -0.2736531423 0.4751325102
H -4.4668379394 0.7664760456 -1.2117249270 0.1655259909 -0.1826449959 -0.4186335239
H -1.5239284615 0.7956303100 -1.6587104526 0.2382309167 -0.0021324400 0.4900551444
F -0.6952687857 4.1241778119 2.8356003452 8.7500046326 14.2803210741 0.4308883057
P -0.8815529837 2.6499983770 3.5871274236 -0.3154156654 2.6336441371 0.8181565688
F -0.6643825672 2.8616729638 1.9304621480 -0.4934415528 -9.2283636785 -12.1631709466
F 0.7474721951 2.4548137233 3.3029675607 2.5663379675 -2.1092131263 1.7906606735
F -0.5456898056 2.8411345456 5.2024427759 0.2683197629 -0.9846120185 1.4142943600
F -2.0248373505 1.6070653708 2.9758184492 -1.4691712425 -2.0391873722 1.6713735838
F -2.0269335231 3.8460695560 3.8223488778 -9.4807232263 -1.7626516094 6.4377626301
32
energy=-36586.7609886856 config_type=IL_pair name=BMIM-PF6 Properties=species:S:1:pos:R:3:forces:R:3
C -3.0363620821 -0.6264722681 0.2298368198 -2.5157840111 -1.7359627670 -1.1133158605
C -2.1405113119 0.3137734231 0.9618547752 1.0071589910 0.7704397577 2.5012517490
C -1.5817104230 1.4077631684 0.0562135786 -1.5471606609 0.5379880007 2.3240408752
C -0.7756653728 0.8188151876 -1.0755539308 -14.9432232681 -6.2148963018 39.1765488923
N 0.3408867145 0.0473338724 -0.6247633464 1.1051449918 -0.2076098166 2.6659320843
C 0.4557809446 -1.2572425496 -0.3271828402 0.7791466900 -5.0436465174 1.1357031365
C 1.7423826005 -1.5607590877 0.0723287629 -2.2523096075 -3.0387782890 -0.0196597449
N 2.4183193087 -0.3920678945 0.0099211827 2.9382603223 -0.4434607788 0.8353854108
C 3.8280114840 -0.1742936353 0.3348141976 1.6047263659 1.6327528521 0.4928965476
C 1.5689453668 0.5642651630 -0.4088089435 2.7028735645 3.1958137126 0.8119436437
H -3.3071991259 -0.2033342254 -0.7703055813 0.2027805914 -0.6677366507 0.5351917511
H -3.9900924201 -0.7367057606 0.7859605163 0.1752350029 -0.0018542071 -0.2363142100
H -2.6467861759 -1.6670059207 0.1358873528 0.0565428535 0.6871275586 -0.2951349941
H -1.2712533556 -0.2080950796 1.3942780418 -0.1413483639 -0.1415850724 0.1870429020
H -2.6833757722 0.7787332625 1.8077601228 0.0815775862 -0.0776295624 -0.0116084401
H -0.9687135371 2.0973754150 0.6569976855 0.1826320836 0.1170596920 -0.0048405205
H -2.4475378698 1.9889490838 -0.3193908197 0.3486747767 -0.0077839142 -0.4023474463
H -1.3913104988 0.2356621915 -1.7737261357 -7.9668850135 -5.7939359785 2.4017879850
H -0.4244840713 1.7074366618 -1.6716685893 -1.0220521774 20.6372474996 11.2484203812
H -0.3247631055 -1.9712496744 -0.3854870518 -1.3783355109 -0.7666249613 -0.2895610277
H 2.1390287059 -2.5391955318 0.3769040415 0.1514590557 0.3436194192 -0.0705708089
H 3.9304276661 0.2033631508 1.3834307503 0.0451746421 -0.5445432735 -0.2198290379
H 4.2582750129 0.6420477214 -0.2997560478 -0.4890014092 -0.3959847207 0.0284477627
H 4.4447919492 -1.0680349208 0.1559868432 -0.2418982701 -0.3154507782 0.2192909787
H 1.8629153687 1.5989382473 -0.5438663807 -0.9192184606 1.7769864179 -1.1069729998
F -0.4060007361 0.9468288461 -2.1347785727 12.7694188618 -15.5047177834 -50.8519743231
P 0.5447130147 2.1210275346 -2.8619074161 8.6066048016 11.6286005680 -9.0163077800
F 1.4456681654 3.1453233580 -3.7983650704 -2.4941642486 8.0456937130 -7.7267568851
F -0.0025421113 3.6462922512 -2.5210498707 -5.7411124074 4.8465765202 -0.0782672078
F -0.9200412840 2.0912970952 -3.6454673299 -2.4648197711 -0.8615475798 -3.6589208824
F 1.0812267468 2.6749555317 -1.3818262677 4.2614237539 -1.4520054811 6.4589704090
F 2.1598781007 1.8081169086 -3.0891370317 7.0978213513 -10.9836630629 4.0746350048
32
energy=-36569.8764648799 config_type=IL_pair name=BMIM-PF6 Properties=species:S:1:pos:R:3:forces:R:3
C 3.1954842191 1.2134601094 0.0887217284 0.3011373347 -1.5609361397 0.2711122918
C 1.9603560457 0.5027840155 -0.4834513707 -0.1787459623 4.3745042494 3.3383826045
C 1.8428674520 -0.7790609401 0.2931334111 1.3156744005 0.2100301914 0.2152918807
C 0.6842972922 -1.6392473222 -0.1110976287 0.7687609020 -2.3074447068 -0.8099601988
N -0.5607278767 -0.9381566076 0.0740394890 2.4129127750 -3.5433646301 2.3191894356
C -1.2612678450 -0.9890029209 1.2326037996 -2.9219598222 0.3351257123 3.6470781096
C -2.4071793483 -0.2252415655 1.1223589794 1.1694306385 -2.3979964326 4.0618796863
N -2.3896157821 0.2919119945 -0.1281763221 -3.5810805163 2.0788120893 -0.5765665417
C -3.4216561899 1.1548994551 -0.6420407814 -0.8547637552 -0.1442514820 -1.9509034024
C -1.2587703481 -0.1550536207 -0.7457161144 1.1696436886 2.7854128643 -7.4015122029
H 4.0484733681 0.5472506894 -0.2307939447 -0.2332823036 0.9441384829 0.6723397915
H 3.3436728037 2.2079573609 -0.3287034933 0.1037765038 0.5670930052 0.2708608013
H 3.0737149536 1.1630045504 1.1883145521 0.8976658731 0.8256557865 -0.1191301183
H 2.1921231865 0.3567933806 -1.5520343989 -1.4539533517 -0.5557170657 3.3962828772
H 1.0740061340 1.1516074538 -0.4214484977 -0.2369716907 -0.2037436136 0.4776195811
H 2.7722552863 -1.3520574030 0.1129301976 -0.0525821838 -0.0907276166 0.4097799107
H 1.7533672096 -0.5247633220 1.3614337554 0.2116756767 -0.3442057901 0.2339706740
H 0.7485953022 -2.5622013108 0.4993536996 -0.7527045540 0.0612071823 0.2198165903
H 0.8109152697 -1.9903221940 -1.1632782969 -0.4080109553 0.7210839085 -0.7704273995
H -0.9880272376 -1.5343155774 2.1188527446 0.6038096398 -0.5572228546 0.3535237927
H -3.1669376864 -0.0767108022 1.8965535495 -0.0842702902 0.1941403112 -0.3916966277
H -3.5328177153 0.9897277603 -1.7530684278 0.0507911793 0.0823426133 0.7190484786
H -4.3901900875 0.8854700858 -0.1658539123 0.2675285881 0.4825211445 0.0262700517
H -3.1473203040 2.2091007549 -0.5119111405 -0.3257681255 0.7532617529 0.2650526748
H -0.9756181019 0.0921659756 -1.7507215768 0.0722177340 -0.0247809542 -0.4976393768
F 1.0761723031 -0.1000490710 -4.0110154102 -41.9050185339 -42.1056442584 -29.1020224456
P 2.2934124940 -0.3364699895 -2.9056903083 0.9220068335 -26.3038497480 12.6939316295
F 0.8854501726 -1.2061884307 -3.0139040297 -5.7753116358 -18.7146887126 12.9139680931
F 3.6361398442 0.4176869741 -3.5887485549 21.7533092057 9.4488718669 -35.5494576274
F 3.1281293823 1.1021592448 -2.8259746045 -8.0071569212 38.4516714100 24.3102082726
F 3.8404030221 -0.9065999371 -3.1475189990 9.5740018719 -32.3212207488 7.7840091458
F 1.5764535130 0.7989458335 -3.8824971904 25.1634721880 68.8295996208 -1.4164054644
32
energy=-36568.7162467685 config_type=IL_pair name=BMIM-PF6 Properties=species:S:1:pos:R:3:forces:R:3
C -3.3306886791 1.1832184954 0.2148533377 -2.5390499947 -0.2394774134 0.9024062124
C -2.1758874965 0.3991013567 -0.4131821561 0.2305755006 2.0025463112 -1.2876991673
C -1.7822618671 -0.7225135057 0.5024425163 -1.1846836852 -0.0270917582 1.6655216680
C -0.6514783472 -1.5626990375 -0.0169164821 0.0168833104 -2.1126786287 0.0727522638
N 0.5656375143 -0.8090026351 -0.2356372149 -3.3850928422 -2.5534754468 -0.4532336955
C 0.9286665563 -0.1832629167 -1.3712455232 2.4803565585 2.8494424612 -3.9362409613
C 2.1676315427 0.4217435379 -1.1608031676 -3.3364364425 0.0768320646 -4.8936664059
N 2.5158927922 0.1431068707 0.0962315987 4.3015414067 0.9077805807 -0.5657953657
C 3.7627139280 0.6076963457 0.6931248731 14.3292856054 -14.3539308857 -26.7980245552
C 1.5482692086 -0.6133449584 0.6899195786 0.8630860171 -1.8605987919 5.3133052737
H -3.6606174637 0.7083054539 1.1801737703 0.3905504141 0.5069492061 -0.6651804218
H -3.0800782345 2.2275968196 0.4249525988 0.0065349187 0.2096734917 -0.0564751281
H -4.2405620478 1.1424480453 -0.4365291469 0.6345920320 0.3412428650 0.3266059092
H -1.3325470902 1.1373431728 -0.5176524535 -0.4034380277 -0.9858990746 -0.4298118547
H -2.5237756470 0.0323091782 -1.4044725395 0.6671129089 0.0655291251 0.2328700008
H -1.5246062129 -0.2747359896 1.4880056507 -0.1220994949 -0.4338858034 -0.2207427310
H -2.6536344311 -1.3974919387 0.6134421037 0.0984168121 0.1527697805 0.3539884808
H -0.4909660279 -2.3708082071 0.7298164989 0.4547980175 0.0685384906 -0.1939880666
H -1.0164750329 -2.0563299624 -0.9357534165 0.4187390466 0.0314975410 -0.3619513194
H 0.3889572831 -0.1286193761 -2.3123450801 -0.5704848286 -0.3735148765 0.0397909015
H 2.7451200526 1.0088764848 -1.8772307889 0.1957865848 0.0223718746 0.2521280334
H 4.0893756902 -0.1373123209 1.4666286284 9.5365860814 -12.4581809091 -5.8284705993
H 4.5718063088 0.6480939316 -0.0628818769 0.2761540305 -0.1733683368 -2.3218860586
H 3.5891052855 1.5682323899 1.1888429026 10.0867123740 7.4495823787 -10.3285453059
H 1.5904024157 -0.9719512344 1.7093039387 -0.2318550490 -0.1265792824 -0.0356691369
F 1.8464015121 1.5285330416 2.2754466873 -28.6527774965 -9.7976598072 -13.8371526600
P 3.3626452405 2.0734163921 2.6840920233 17.1071618756 17.7103137195 15.6302775407
F 3.4825515198 0.6003310870 1.8936001366 -7.7451144785 -10.3581084371 37.0347765871
F 2.0577180665 1.2780292784 3.3914781050 -8.8648804570 -14.8090527159 39.2975502392
F 4.9713822727 2.4000727032 2.4304922066 1.9816989461 1.3406097839 -3.0489341958
F 2.2366450847 3.1087267407 2.0325290444 -1.0080505347 22.1286736168 4.2144639761
F 2.6987704889 1.8035880670 1.1803785013 -6.0242415890 14.7939981182 -30.0836431957
32
energy=-36601.1811343256 config_type=IL_pair name=BMIM-PF6 Properties=species:S:1:pos:R:3:forces:R:3
C -3.6235765168 -0.0047548911 -0.4215542728 -2.5134435341 -1.1784362723 -0.0395806802
C -2.8922435455 0.7189820199 0.6712168274 -0.2432675166 1.1046595862 1.7658126279
C -1.4399060480 0.7928969750 0.3235777241 1.7483665111 2.2875526598 -0.3172145015
C -0.8395487055 -0.5881748345 0.1696082057 0.1922210158 -0.6099863525 -0.2090449672
N 0.5836201943 -0.4350263101 -0.1705041087 -3.7384546506 -0.9585287130 1.8256940840
C 1.0620457877 -0.3477303349 -1.4300748156 1.0468245068 -1.1189918853 -4.2718781967
C 2.4498700378 -0.2125075109 -1.3088982329 -2.7290327786 -8.1885983459 -2.9869517084
N 2.7491726164 -0.2239452234 0.0160680100 3.3195276787 -2.5255373937 4.0774293281
C 4.1095869943 -0.1047671780 0.5639429003 -0.3999114788 1.4844950704 1.2041118375
C 1.5968720072 -0.3610884298 0.7109835550 -0.3608956265 -0.3877111226 4.2638291669
H -3.5882380205 -1.0942424926 -0.1717291886 -0.2155802802 0.5657562970 -0.7345054751
H -4.6908391535 0.3397797825 -0.3509411298 0.6516416526 -0.6395695059 -0.6517064717
H -3.2049874569 0.1871592821 -1.4254079277 -0.2419630466 -0.0181781004 0.1828789906
H -3.2816005967 1.7472971431 0.8091309012 -0.0262471671 -0.2462548397 0.0556924508
H -2.9786368476 0.1747299404 1.6375408417 -0.3392154235 0.3042608706 -0.2688050835
H -1.3113493332 1.3241229281 -0.6583386470 -0.0128799836 -0.1621862401 0.7866141851
H -0.8552086575 1.3472394967 1.1058512808 -0.3893226926 -0.2699008775 -0.5786135712
H -0.9563669338 -1.1452549631 1.1021734092 0.1511939656 -0.4267668717 0.4600227374
H -1.3577432656 -1.1379871646 -0.6348315867 0.2378867981 -0.1315662477 -0.0758307542
H 0.4759730680 -0.3778037787 -2.3447583690 -0.1355552972 -0.2076924116 0.2826791844
H 3.1616445245 -0.1156784880 -2.1256910525 1.1323541177 -6.5753102085 -2.2607679156
H 4.0332593298 -0.2605041847 1.6639488488 0.3880968578 -0.4871035195 -0.4559725318
H 4.7804301794 -0.7891912288 0.0434427856 0.5656681106 -0.4243512307 0.0614096064
H 4.4504755520 0.9637588562 0.4504474901 0.1940538209 -0.6257991785 -0.1917858515
H 1.5672947897 -0.3973094109 1.7747965513 -0.3910875325 -0.0474168426 0.9880346694
F 2.8197478547 1.1229094530 -1.3353351949 11.1834419963 5.8855783413 40.6877923205
P 3.9046418317 1.7485063454 -2.4287757423 5.2095259315 6.8439492820 -2.5916546913
F 4.2421386307 0.4754476610 -3.4449200890 0.2672241183 -1.2876277074 -1.3063411344
F 2.3271534132 1.2445075009 -2.5589619697 -17.5118899954 5.3289782806 -38.4222497867
F 3.2329131654 3.1407648539 -3.0462940806 0.4525469628 1.7749027316 -4.2080519949
F 3.8772025725 2.8293436757 -1.1624262053 0.8572053784 1.4648162379 3.3166611050
F 5.5062476835 1.6689300823 -1.9823915366 1.6521846698 -0.5313446233 -0.3983279306
32
energy=-36604.1172145274 config_type=IL_pair name=BMIM-PF6 Properties=species:S:1:pos:R:3:forces:R:3
C -3.4122339499 0.7762287877 0.1298263910 -2.6821357490 1.9861066031 -0.1339185307
C -3.0233106153 -0.6777527936 0.2146071916 -0.1822425337 -1.6792088736 -1.2842293633
C -1.5274916690 -0.8259671187 0.5143898571 -1.2219564528 -2.3075763542 0.9121895262
C -0.7986987168 -0.1572555440 -0.6134651452 -0.0413006482 1.8222870385 -0.6045599460
N 0.6474423263 -0.2142677642 -0.4719631481 -3.5025888616 -0.2773079585 -1.2070748141
C 1.4615776971 -1.1839136105 -0.9395027324 3.9377865856 -2.0363418469 -0.5381503427
C 2.7593902693 -0.8197673718 -0.5701134594 -1.3714048537 -5.3431529857 -3.2107834959
N 2.7130095880 0.3372082860 0.0995476639 3.9801289883 1.4437349978 1.4737750234
C 3.8758905194 1.0360601393 0.6479601554 -0.2299629405 1.9731494507 -0.4304627839
C 1.4120584668 0.7177983317 0.1644465237 -2.6018129119 5.5529022760 3.1828634258
H -2.6699314913 1.4521710457 0.5835538509 -0.3535936048 0.0037459491 0.2421987781
H -4.4183590325 0.8782886553 0.6237477533 0.9752298014 0.4559791666 -0.0950201268
H -3.6004870722 1.1223323907 -0.9191170949 0.4819744678 -0.3174614287 0.6153265227
H -3.1853526767 -1.0931957686 -0.8205435696 -0.2054991502 -0.3081324172 1.1001477914
H -3.6111582139 -1.2516541083 0.9669593034 0.0945831434 0.3147681688 -0.4619009818
H -1.3218277556 -1.9286537201 0.5054591178 0.4301573375 0.7248992254 0.5116695025
H -1.3439341926 -0.3773295868 1.4966947901 0.6226746038 -0.0736018351 0.1947651911
H -1.1321064040 -0.6251621686 -1.5612701506 0.3198450221 0.2140586028 -0.1273146656
H -1.0808029893 0.9307227427 -0.5853718288 0.2497194106 -0.6684004751 -0.5192192696
H 1.1610715930 -2.0677063762 -1.4916649151 -0.3578281658 -0.1485320325 -0.1474271920
H 3.5994420630 -1.4499616105 -0.8364210590 0.8535641980 0.3485144325 0.2911998641
H 4.5125301218 0.3876710246 1.2625348141 0.1283563270 -0.3092520352 0.2237287541
H 4.4487278590 1.4942013870 -0.1932005225 0.2972817868 -0.3587663585 0.2350016302
H 3.4832748177 1.9046708451 1.2236933296 0.2705157518 -0.4892627421 0.2093975757
H 1.0512794574 1.6352339059 0.6563206205 0.1464045531 -0.6114348002 -0.3644701764
F 1.0003894766 -0.7480020380 2.8299554159 0.1593019761 1.2130804643 0.3878054311
P 1.7184674636 -2.2038977194 2.4882992484 -4.8156581846 2.3801891576 -3.0624300693
F 2.8098159484 -3.0200639045 3.4412704596 7.1424754994 5.9317832027 24.4023349094
F 3.2614000912 -1.6889470026 2.0937201427 1.4130815407 3.8960578627 -2.3045165277
F 0.5243438341 -2.9966402986 3.3350769633 0.0347105060 1.4186602424 22.1596227796
F 2.5141599322 -3.6442937973 2.2300574414 -1.8912767181 -14.0253035207 -19.2777320233
F 0.4990341503 -3.1147972488 1.8031949081 -2.0845209577 -0.7460597705 -22.3955057232
32
energy=-36567.9972430596 config_type=IL_pair name=BMIM-PF6 Properties=species:S:1:pos:R:3:forces:R:3
C 3.1614831931 0.8760895731 -1.0023961000 0.5970393790 -0.0736006870 -0.6651273275
C 1.8405994025 0.1019838536 -1.0551378991 -0.1508703766 1.4000959783 -0.6476322894
C 1.8669700833 -0.8170222901 0.1477906634 1.4003569477 -0.3777897574 0.2912877132
C 0.6092259603 -1.6549858072 0.2272976559 0.1362667925 -1.0298635279 -1.8676117678
N -0.5628851841 -0.8134010593 0.3378026006 2.9980936858 -2.8193894814 1.8070070312
C -1.0635997649 -0.4159015111 1.5209961961 -2.1308280845 0.9629924596 5.1215110650
C -2.1747249824 0.3709871368 1.2991115833 1.7051050206 -0.0755374513 4.0270295079
N -2.3284044201 0.4358239457 -0.0477592417 -4.3521233068 3.3106483607 -0.8443588702
C -3.4022524497 1.1818009982 -0.6967273015 -0.9745347317 -0.8207401254 -0.4942390788
C -1.3432695286 -0.2875929416 -0.6214854631 0.9697201750 -0.8602786997 -6.7907538600
H 3.9518238708 0.1206487518 -1.2035254253 0.2061068373 0.7628369266 0.3185646427
H 3.2018465744 1.6716728399 -1.7717914437 0.1326159238 -0.1318928906 0.3120667196
H 3.2381017578 1.3006228164 0.0158467462 0.5021367765 0.1237416127 -0.4090514467
H 1.0248897742 0.8484221417 -0.9420445310 -0.1158893623 -0.5727678408 -0.2980322584
H 1.7608372803 -0.4531244167 -2.0095018764 -0.2765396141 0.1278024527 0.1968264457
H 2.0120356056 -0.1878516880 1.0355431852 -0.1160556687 -0.1680681387 0.3575644205
H 2.7408743997 -1.4939137953 0.0541697630 -0.1189454132 0.1037105028 0.2078059916
H 0.6891560855 -2.3631292231 1.0501719875 -0.3632182161 -0.5116780336 0.6064793232
H 0.5475998461 -2.2028773597 -0.7512440567 -0.1747904766 -0.0706535327 0.6646737309
H -0.6830992148 -0.6543207805 2.5250309568 0.3071188247 -0.2679172093 -0.5847362577
H -2.7935021700 0.8388776810 2.0630557809 -0.3792345460 0.0875052391 -0.2610526067
H -3.7174691408 2.0370027609 -0.0624110525 0.0997192453 -0.1370524679 -0.2053591222
H -4.2668415560 0.4657316908 -0.8149470731 -0.0173084262 0.7522078036 -0.1370060411
H -3.1087685478 1.5189203532 -1.7113770914 0.0941695182 0.0949397539 0.1952490579
H -1.2006268742 -0.4244636705 -1.6653412424 0.0435445082 -0.1288417908 -0.9266266550
F -0.1381539555 3.2085781830 3.2208475828 37.8041982986 -61.9669149520 57.1010161835
P 0.5140364331 3.2628807785 1.6900745521 24.4936602076 -12.1266068216 -21.0952372499
F -0.6918166831 2.2302253454 1.2076506272 -5.7644986255 -4.2112589443 0.8919232856
F -0.6942818597 3.9178129976 2.6625145761 -79.8367870964 -0.1804608460 25.8213918652
F -0.4000738378 4.6097674538 1.9797650131 17.3967382085 78.0743957908 -64.4515659825
F 1.8401045184 4.2784642171 1.5788425583 2.7693484666 6.5254087379 -2.0480763260
F 1.6810447803 2.8839269119 2.8069758984 3.1048500349 -5.7870926142 3.7948660178
32
energy=-36561.4299829348 config_type=IL_pair name=BMIM-PF6 Properties=species:S:1:pos:R:3:forces:R:3
C 3.5438823396 -0.5118862567 0.6770893733 1.1525801002 -2.2690508812 0.0541460311
C 2.9737265605 0.8010728727 0.2105330328 0.8522310001 1.8921893236 0.4982603755
C 1.4725334823 0.9072156819 0.5142949681 1.2495610687 1.6393545238 -0.3881643281
C 0.8425290604 -0.2488800002 -0.2352998792 -0.8003094197 0.2411887709 -1.3531433273
N -0.5919350732 -0.3237580933 -0.0731011217 4.8989769620 -1.9059140943 2.6942553132
C -1.2258037144 -1.0193893137 0.9108173235 1.1237605365 -2.7021812091 6.3234003817
C -2.5852403932 -0.8473260669 0.7299442199 2.0577599559 -5.5736454829 39.5771226394
N -2.7709544733 -0.0640354742 -0.3408898018 -25.5332649828 92.5025482636 8.6111142570
C -4.0640336696 0.3317450796 -0.8325267941 -5.1912720928 3.2893721945 -2.3180349090
C -1.5464493621 0.2536451232 -0.8287642905 6.4012588024 16.8750396346 -11.1587186164
H 2.8388585701 -1.0275336661 1.3653246804 0.7006651912 0.1698426605 -0.0494466029
H 4.5390390643 -0.3860480093 1.1475469099 -0.4018678855 -0.0780827413 0.1447145670
H 3.7140106045 -1.1739992616 -0.1975858154 -0.1712094088 -0.0419126034 0.4292080208
H 3.5190739011 1.6047503852 0.7631266604 -0.3195618348 -0.0385292132 -0.7050764995
H 3.1228831999 0.9050765805 -0.8822450260 0.1157567003 0.3285177469 0.3141585083
H 1.2920824579 0.9014835828 1.5890368635 -0.2255781654 -0.0986264070 0.4308648870
H 1.1779132622 1.8851275104 0.0815805223 -0.6170181682 -0.3345253405 0.3357397592
H 1.0885160370 -0.0784881710 -1.3124191299 -0.3668969565 -0.3641559029 0.2358266556
H 1.2865384261 -1.2109297584 0.0535000142 -0.0218200046 -0.1773914904 0.1796567064
H -0.7236016449 -1.5950590955 1.6827359891 0.0188738639 0.7378180313 0.4442567117
H -3.3079549456 -1.3102469235 1.3971106703 -0.9838900211 0.8688540615 0.7626419919
H -4.8168322692 -0.4635283716 -0.6464989134 0.4804077689 -0.0815003003 -0.1774343357
H -3.9912595667 0.5635780581 -1.9077302171 -0.4129639309 -0.0190197309 -0.2278753684
H -4.4397638196 1.2324529550 -0.2796822978 0.7531350582 -0.3590664637 -0.1772559073
H -1.3477580338 0.8749606327 -1.6924340191 -0.2690511557 0.8470240937 0.9682188272
F -1.1720604906 -3.2561081994 -1.7292269282 0.5925685879 -6.8489802360 -0.7752143650
P -2.2518014639 -1.9931595362 -1.7971114512 17.6874458266 3.3627079193 -16.7742807422
F -0.6775297530 -1.4797900614 -2.0370791842 4.3605469662 3.9613370236 -3.2697225087
F -2.8490547061 -3.0856711807 -0.6768091384 7.5774641820 -8.4448352802 30.4392050664
F -2.5154273863 -0.9803416004 -0.4799583158 12.3487463041 -92.0985414082 -28.3662517675
F -3.5025584816 -3.1008927204 -1.7331064492 -18.8667828062 -13.2171354953 -16.2427094037
F -3.6782539501 -1.6902642221 -2.5841947756 -8.1899318663 7.9266388290 -10.4427911862
32
energy=-36552.9786857391 config_type=IL_pair name=BMIM-PF6 Properties=species:S:1:pos:R:3:forces:R:3
C -3.3860449473 1.0806453678 0.5995208090 -0.4111283920 -0.4491396362 0.6342352816
C -2.2653128347 0.3880539190 -0.1901763157 -0.4010871669 2.6134599604 -0.9967388271
C -1.7470116636 -0.6772944763 0.7147432633 -1.5449542355 -1.0892131748 1.0672219253
C -0.6332173353 -1.5069577355 0.1709210459 -0.1554229135 -3.5745663037 -0.4500023916
N 0.5518395202 -0.7771511909 -0.1774927458 -2.0528810486 -1.2304129560 -0.1981217089
C 0.8562848515 -0.2167612549 -1.3646197686 1.4687422974 2.1611063880 -3.2693914208
C 2.1049652822 0.3839644910 -1.2364644290 -2.2186010541 0.6065376618 -3.9352558097
N 2.5404889331 0.1788337176 0.0287689092 2.9935206247 -0.1090073521 1.2151305312
C 3.8063489348 0.6373886637 0.6015332279 -24.9680450257 10.6716739830 -31.9985141347
C 1.5963976446 -0.5198475808 0.6515279578 -0.5181046156 -2.2697834939 5.7096213242
H -4.0468623436 0.2554990152 0.9663240718 -0.1896362995 1.1051765507 -0.1439394620
H -3.9085555704 1.8464390975 0.0099082084 -0.2874407245 -0.1466121461 0.0498494694
H -2.8921894527 1.5621920245 1.4624347117 -0.4998020256 0.0420713571 0.0414195649
H -2.6603600646 0.0004900419 -1.1404643578 0.2294261792 -0.1367374491 -0.1370787943
H -1.5302522844 1.2027560236 -0.3760060740 0.1725341278 -0.7686622472 -0.3908131967
H -2.6026055606 -1.3895048104 0.8749298298 0.6519141492 0.5074793432 0.4352898388
H -1.4350323696 -0.2305989038 1.6676596439 -0.1159265697 -0.0467888155 0.2607383161
H -0.9799648798 -2.1456603650 -0.6931306965 0.2435561107 0.7946612471 0.2850515336
H -0.3779832811 -2.2494432883 0.9558041048 0.3245369921 0.0871702192 -0.0360043812
H 0.2448969500 -0.2286543579 -2.2580811956 -0.5021255979 -0.2234964430 -0.1289492343
H 2.6410187807 0.9249441451 -2.0146961716 0.4078701263 0.0283052267 0.1532634714
H 4.4300127697 1.0702284937 -0.2322322163 -4.6658886625 4.3627929971 -8.1321882791
H 3.6036354176 1.4302860141 1.3297214424 -21.7295898334 3.6073469236 -9.7625828717
H 4.4087370177 -0.1905329768 1.0119300949 -8.2378580799 -10.0143597693 13.1860794464
H 1.6807664854 -0.8293140742 1.6906490279 -0.1672527531 -0.2281522345 -0.1063551973
F 6.0066977985 -0.8771888889 1.2112416311 6.1738294998 -6.6836804543 4.9316196960
P 5.2923332639 0.6067800500 0.8879925965 31.6619071548 12.4599331755 -17.5798790973
F 3.9953821127 0.2294009136 1.8616929538 -18.8895069639 -40.4596403305 36.3679523042
F 6.8781230878 0.6456662042 1.3797409002 28.9231762178 -3.7835626098 -7.8866599557
F 6.1291031238 1.2070852554 2.2177431054 -7.4648421233 11.7455998121 20.7550062642
F 4.2545871989 1.5974717909 1.7361231188 25.2329481545 55.5228639343 24.9375449320
F 4.4879600803 -0.7882551832 0.4726851907 -3.4594765477 -35.0945237127 -24.8779384964
32
energy=-36584.7934824283 config_type=IL_pair name=BMIM-PF6 Properties=species:S:1:pos:R:3:forces:R:3
C -2.7948310363 -0.2929190869 -1.3682977858 -2.5063482677 -1.5409023995 -1.9772373379
C -2.2103036574 0.7257202326 -0.4533232821 1.3603067013 2.7438632293 0.1051955620
C -1.8733458443 0.1584278611 0.9167405423 -2.8734711644 0.5748709611 1.1346490161
C -0.8836360772 -0.9482470317 0.8254745059 0.6367118567 -2.2317560172 -0.9732664085
N 0.3769706354 -0.5384375231 0.2307770980 -4.3660369396 -2.1443057178 0.4665022178
C 0.7568071214 -0.5443179146 -1.0592522906 1.7032590158 0.0591435689 -4.7780276818
C 2.0415298599 -0.0667166734 -1.1515318338 -1.5971379839 -1.1399602791 -4.6044576937
N 2.4499425005 0.2340604743 0.0979605261 5.8926174792 1.5947557537 -1.1506295645
C 3.7635698705 0.7707277985 0.4184656575 0.7816370689 0.1298181037 -0.4003449959
C 1.4296065075 -0.0591869256 0.9101117292 -0.0237619567 1.9239449425 9.4555696759
H -3.7617568058 0.0844154500 -1.7742000879 0.3863629970 -0.1765733927 0.0784173688
H -3.0682427409 -1.2098909182 -0.8030148643 0.3310881191 0.0886948137 -0.5991533876
H -2.1831058989 -0.5192928227 -2.2673221865 0.0128746568 -0.2285176621 0.6619752109
H -1.2918250239 1.1482098860 -0.9378793290 -0.6093236465 0.0690347291 0.5697601596
H -2.9339232180 1.5417350218 -0.2701218755 0.2280362599 0.0998308951 -0.3307793152
H -2.8304820489 -0.3125690935 1.2754936245 0.6129660479 0.4896345479 0.1885046681
H -1.6039570291 0.9529384354 1.6240032364 0.3080035215 0.0572405226 0.0876607728
H -1.3195666757 -1.7134042779 0.1178998961 0.3467858950 0.2297564576 0.8631044807
H -0.7297055203 -1.3854474329 1.8307896518 0.4157462529 -0.2227828968 0.0126653769
H 0.1602004935 -0.8678218898 -1.8889494657 -0.7168791482 -0.3952463525 -0.4626437817
H 2.6408948555 0.0547812203 -2.0645254351 -0.0138446790 0.0110666095 0.3772451044
H 3.7827240243 1.8759552284 0.2926291941 0.1909052911 0.1542989208 0.3837070689
H 4.5213305588 0.3601420034 -0.2836934584 -0.2190414672 0.0502971473 -0.0698993450
H 4.1014939326 0.4749488363 1.4241013765 -0.3042183117 0.2162862131 0.3332610645
H 1.4596112168 0.0761891424 1.9744947534 -0.0151254806 -0.3572610989 0.5442593186
F 1.6941116710 -3.1907582208 4.7380087169 -3.9128209084 7.2982085026 38.9125063662
P 2.7113381926 -2.3615226990 3.7073598889 -7.3243487881 25.7668373076 -6.8885422910
F 1.6201952693 -3.6179811301 3.6106762954 -11.9913296693 -21.3812696819 -32.5816728295
F 4.0341516950 -1.8596031402 4.5625042657 2.0401705451 6.4414610937 8.7069915235
F 4.2074056339 -2.9619098073 3.2464853884 46.7615020395 29.4265295125 -27.9716463367
F 1.5343380293 -1.3040006015 3.2412151426 -3.7013296312 3.7063055657 1.1222386484
F 3.6122918448 -3.7592453235 3.6103291926 -21.8461451680 -51.3102724263 18.7892857168
32
energy=-36533.1345026626 config_type=IL_pair name=BMIM-PF6 Properties=species:S:1:pos:R:3:forces:R:3
C -3.6765053472 0.5724664881 -0.4236484345 -3.2708388639 0.6032978509 0.7883015030
C -2.9569627036 -0.6454524368 0.0933658201 41.7514359308 128.6653468176 -101.6520181662
C -1.5162125029 -0.3900158073 0.3911292193 2.2743590348 6.5887246396 3.4611097083
C -0.7227203674 0.0649022964 -0.8132010491 2.2249980156 1.6755080336 -0.1145739520
N 0.6708945898 0.2835312348 -0.4003180199 -5.4735879209 1.1958436460 -2.1142227941
C 1.1977223057 1.4455300869 0.0645262544 3.5521227313 2.3956052220 1.7212514285
C 2.5370516216 1.2031222573 0.3319026986 -1.5475625881 3.4767420941 0.6338874606
N 2.7902716291 -0.0872283568 0.0264598423 5.0021908588 -0.4932037277 1.2734588697
C 4.0414344019 -0.8181862784 0.1319276782 0.6924477534 -0.3051293759 -0.3912901601
C 1.6541420297 -0.6563919710 -0.4219871859 -1.3302406364 -7.6681446505 -2.4265302266
H -3.1941077751 1.0217140828 -1.3050215795 -0.0585030885 0.1897405463 -0.1746230010
H -3.7962982970 1.3248995357 0.4051352880 0.3920746414 0.1385174022 -0.7498827189
H -4.7289578605 0.2618101324 -0.6485276924 0.3495604408 0.5652969155 -0.5609671064
H -3.1148985677 -1.4879113088 -0.6033451687 0.6686689441 -0.4015256894 -15.0917912844
H -3.4418186746 -0.9029635590 1.0585450366 -24.4930460235 26.3607859456 44.6204394893
H -1.4569208539 0.3615823019 1.2029545064 0.3429945276 1.1609917525 -0.3027556553
H -1.0913399207 -1.3656694221 0.7497108411 0.3299431903 2.0418580352 1.0915695245
H -1.1575405967 1.0015269015 -1.1896147188 0.1502755779 0.4703488494 -0.3067951020
H -0.6808112174 -0.6830378544 -1.6068802293 -0.4492254354 -0.3655226492 -0.2713243605
H 0.7088006548 2.3790162251 0.2086328502 -1.0005761938 0.8708989221 -0.0287232896
H 3.2914464123 1.8729735008 0.7131397588 0.4324232532 0.3508220837 0.2026179713
H 4.8492907077 -0.1912362105 0.5491322724 -0.2497076638 -0.0562079815 0.3796134128
H 3.8775302623 -1.7563198972 0.7090152088 0.3043162008 0.1583318001 0.1164214653
H 4.3812900634 -1.1081416024 -0.8832801733 0.0654577210 -0.2794537347 -0.1478013780
H 1.5352200065 -1.7005203389 -0.7505865291 0.1057788078 0.8218482007 0.2352448965
F -3.1375249538 -1.3033853176 0.5970726232 -23.1379946580 -136.6989907457 78.5289064124
P -2.6772836819 -2.7887463893 -0.0333586072 22.2795921035 -11.1201630264 -21.2964552317
F -1.7195069683 -3.2481271220 1.2754687095 3.6332922783 16.9582801153 20.7824601043
F -1.9921670537 -4.2878251049 0.2465667384 -3.4023003671 -20.0082989002 -16.6431898689
F -3.8928435130 -2.8297454874 1.0895535290 2.3683700741 58.3860419484 60.4391039101
F -4.0585300887 -3.5945074404 0.4682452819 -25.1850255307 -69.8479958314 -45.9504968760
F -1.1856471893 -2.1360374990 -0.3458552221 2.6726671819 -5.8239771878 -6.0567867639
32
energy=-36603.9838256860 config_type=IL_pair name=BMIM-PF6 Properties=species:S:1:pos:R:3:forces:R:3
C -3.4593310105 -0.4976434221 0.8595196275 -2.0138244369 -1.1997804739 0.0330141707
C -2.2511190977 -0.4210399206 -0.0679591116 -0.7835677117 -1.2323189226 0.4593675014
C -1.7181561294 0.9683144275 0.0121500669 -1.5372518902 1.9536320387 1.8067145156
C -0.5263153748 1.2534211264 -0.8270131669 -0.7440007715 2.6882085168 -2.8987181992
N 0.6387461963 0.4705775234 -0.5627981419 -0.8714192414 0.7574115054 -0.3774870535
C 0.9308884997 -0.7082315423 -1.1580052864 1.9787163602 -4.2993434002 -1.4724670948
C 2.1457268503 -1.1830216918 -0.6526579330 -3.5770474583 -1.6228952854 -3.4918612086
N 2.5600766262 -0.2702084529 0.2432406115 2.8720100934 0.2954639947 2.0718488310
C 3.8018835449 -0.3765546408 1.0149745240 0.9692968193 0.1761894135 0.6532981836
C 1.6473397577 0.7435148667 0.3058675568 0.3600385787 4.1806483799 3.4925534806
H -3.7352358621 -1.5679878443 0.9731628025 -0.0574140246 0.3945861242 0.1774496685
H -3.2763611059 -0.0813836456 1.8542516149 0.1531091318 0.1385660009 0.1780868577
H -4.3456507063 0.0020047909 0.4022042857 0.5153256765 -0.0246111516 0.3803085833
H -1.5386837135 -1.1847246161 0.2908270182 0.2220703339 0.0800173780 -0.6657967065
H -2.6433696085 -0.5911394163 -1.0795620273 0.5808574511 -0.6183691740 -0.2935614044
H -2.5281074024 1.6394144883 -0.3679269517 0.4563233491 -0.1178336976 0.3692141254
H -1.5322231210 1.2526652938 1.0771323891 0.0484017323 -0.1995487082 -0.4222124558
H -0.3325936759 2.3492652876 -0.7553113388 0.5833751626 -0.3599240294 0.1245507692
H -0.8238130224 1.0952697271 -1.8972871659 0.3850236698 -0.1282582109 0.4129705944
H 0.3146084991 -1.1966471367 -1.9052939544 -0.3874984906 0.0772010794 -0.2163584552
H 2.6191211409 -2.1044416063 -0.9514870475 0.6784712544 -0.4235361835 0.1984395302
H 3.8308939467 -1.3579199540 1.5078581473 0.0598894381 -0.2481831423 0.1554779946
H 3.8211028731 0.4080370815 1.7912204936 -0.3938744615 0.1641861227 0.3955639442
H 4.6952236417 -0.2739699500 0.3724111036 -0.0072162971 0.0032166690 -0.2018177779
H 1.7053482539 1.6324292267 0.9436679666 0.1110568369 -0.2510598842 -0.0701588106
F -0.4484949121 1.7290607841 4.3574725834 -2.5171831107 9.8170429126 10.8806407949
P 0.7689697696 1.1740142376 3.3777284367 7.7922942124 2.7712310382 -10.7789865939
F 1.4600616985 1.1444267346 4.8861109707 -0.1764448298 4.6471857592 15.1547343062
F 1.3383990569 2.6828621882 3.8095513510 0.3304241822 6.5593938842 -1.4026452891
F -0.8167270026 0.6720696758 3.3966883420 -10.3979076034 -11.1535163895 -6.8974457732
F 2.4302449527 0.9617106930 3.4741376013 8.9195152196 -0.5839487505 -7.2825405257
F 1.1211207809 -0.2361142114 4.1952273837 -3.5507257524 -12.2291857336 -0.4974861936
32
energy=-36560.6840834327 config_type=IL_pair name=BMIM-PF6 Properties=species:S:1:pos:R:3:forces:R:3
C 3.9991472455 -0.4701594222 -0.4557929101 3.5588194363 -1.0669869221 -1.0769311898
C 2.9535877158 -0.0569114366 0.5239863755 -1.1866906182 -0.1860757501 2.2660948398
C 1.5607453992 -0.0069075931 -0.1026139577 0.5673883139 -0.5272742825 -0.6628068595
C 0.5471873560 0.4214009559 0.9538372230 0.8003190197 2.6509911190 0.5443799912
N -0.7897701029 0.4920464901 0.4399193055 3.8968870151 0.4575775956 1.9399663562
C -1.4364808395 1.5302865383 -0.1251626722 -2.8099585432 3.4358277998 -2.2154367556
C -2.7222339746 1.1298036235 -0.4717483543 2.5282593718 5.0506014564 -0.6141051618
N -2.8358143797 -0.1560703203 -0.1081991035 -4.7445708666 -2.0639019779 -1.4941265956
C -4.0308206073 -0.9453709696 -0.2988601715 -1.7219860419 -0.0669649166 0.4570975469
C -1.6618145149 -0.5595663784 0.4507101277 1.5696269026 -7.4308654995 2.4759203340
H 4.9900613290 0.0342923798 -0.2592361220 -0.9055209194 -0.3104188728 -0.0255611599
H 4.2317434090 -1.5667926806 -0.3415008589 -0.4441756867 0.8329044272 -0.5956256388
H 3.7568934658 -0.2188051751 -1.5116206555 -0.1551697025 -0.3337943389 0.4421668813
H 3.1785531963 0.9225210658 0.9826994590 -0.0224210317 0.0358323100 -0.1669821113
H 2.8581865926 -0.7789877224 1.3741467442 0.5849532760 0.3593452659 -0.3882964867
H 1.6315386062 0.6935610178 -0.9374896214 -0.5926181979 0.2449686586 -0.4133478743
H 1.2419923337 -0.9942384064 -0.4584911056 0.2459596669 -0.2323587933 -0.3916017757
H 0.8736647009 1.4507742841 1.2747591497 -0.3988966383 -0.4845079829 0.0299818853
H 0.6735304535 -0.2283393465 1.8290164149 -0.5121631954 -0.4787145183 0.3199189400
H -0.9731556296 2.4983046051 -0.2599059580 0.1586014914 0.4239899606 -0.0423591137
H -3.4395912344 1.7896758540 -0.9435406232 -0.6800121980 -0.2981195460 -0.1913481971
H -4.4684946888 -0.7989846924 -1.3073640453 0.1991165583 -0.1261698181 -0.1524201824
H -3.8627327633 -2.0166913269 -0.1106126565 0.2976181274 -0.0621589862 -0.0993713150
H -4.8297995058 -0.6129386186 0.4157545598 0.0684136140 -0.2350624243 -0.0995120780
H -1.4461235626 -1.5519027255 0.8428321369 -0.1892147846 0.3692672220 -0.0766985411
F -2.1073338620 1.5805836138 -3.3786037964 -0.7371739170 7.4385559797 2.8383867325
P -1.0197662717 0.7258540879 -4.3088336999 -14.4747224111 26.0064743249 -18.1602061205
F 0.5979446060 0.7254066833 -3.9479471771 32.1445332258 23.9867808165 -10.9263591594
F -1.2363297844 -0.9265583248 -4.1609766619 7.2141062339 -53.2555583116 -58.2946673009
F -1.0433593060 -0.5280417112 -3.1842255342 -51.5760100658 -14.3361947480 82.4266247434
F 0.0165792765 -0.2784001568 -3.4772950706 59.2320635073 -3.3120809648 2.5515470532
F -2.4053452917 -0.1465636158 -3.9732957067 -31.9078297118 13.5149521225 -0.1971491744
32
energy=-36578.6620292234 config_type=IL_pair name=BMIM-PF6 Properties=species:S:1:pos:R:3:forces:R:3
C 3.4539474372 0.9358050981 -0.0100450767 3.0228533667 1.5357450258 -0.4409765806
C 3.0352523039 -0.4697967598 -0.3537218701 1.0184249408 -0.7573770755 -0.2386893506
C 1.5548059597 -0.5750657912 -0.6502336548 0.5699438696 -0.8206753042 -0.9658448448
C 0.7989352947 -0.1300676312 0.5804712018 -0.1590885408 1.9594221739 0.5424061045
N -0.6447679138 -0.2006971333 0.3802221805 5.6327358444 -2.7616126890 2.4458496091
C -1.3414650691 -1.3254968741 0.6776440215 -3.3454002185 -3.5610395949 0.7114031967
C -2.6701700954 -1.0916764758 0.3852325070 1.2753420156 -3.5667660938 1.4383247976
N -2.7260010043 0.1860549339 -0.0852136915 -5.9693258572 0.3474833344 -0.9322591527
C -3.9799814194 0.7898316769 -0.4997174873 -1.3813128022 0.9385731422 0.5573246022
C -1.4897715995 0.7159479619 -0.0832371827 1.3280723263 7.4214466304 -2.5311699292
H 3.2503852857 1.6646417461 -0.8235298518 -0.3826148047 -0.2571782499 0.4179421011
H 3.1024276104 1.3053240419 0.9536740881 -0.3108572178 0.1294749314 0.1683059178
H 4.5805741219 0.9005916221 0.0506028078 -0.9120590085 0.3116262461 0.2023197059
H 3.6515422029 -0.7865340918 -1.2129324072 -0.2295543902 -0.2226934422 -0.0535052390
H 3.2991386409 -1.1125619106 0.4940606701 0.0266980114 -0.3467961869 0.1434051517
H 1.3362437619 0.0582322726 -1.5167358152 -0.4482604402 0.0460786108 -0.1785907268
H 1.3225449784 -1.6178022850 -0.8714216862 -0.3662297467 -0.3659167219 -0.3485098786
H 1.1041569588 0.9275595789 0.7860135586 -0.5679793823 -0.3893310094 0.0284831620
H 1.1100929595 -0.7174127803 1.4583130027 -0.1750373151 -0.3263190233 0.2957324119
H -0.9596621281 -2.2654543137 1.0770048615 0.5798686771 0.1881096834 0.0371386425
H -3.5207355147 -1.7765447971 0.4996147261 0.0586727025 0.3976608465 -0.1222039799
H -4.3069881789 0.4686151266 -1.5053574651 -0.0432884954 -0.0456198355 -0.3004211677
H -4.7814002663 0.5125080333 0.2321823193 0.2724664845 -0.1214721036 -0.4144085576
H -3.9472927164 1.8993337243 -0.4715092827 0.4081415234 -0.2112560499 -0.1892722731
H -1.2318116101 1.7046650274 -0.4001552193 0.1124391475 0.5085986848 -0.1601707810
F 0.1738097893 0.2216290318 5.2171041338 -71.4939818426 27.5649631585 24.5529179875
P 1.6289029316 0.8370452450 4.7296296803 22.4231556175 16.2587097438 -7.1148805651
F 0.3986643191 1.9509673317 4.6005812143 -0.6254853399 10.0456016032 -1.3940243526
F 0.2691816340 0.2309878765 3.9883492179 1.3252332644 -4.5826581020 -59.6120933469
F 0.9053883906 -0.2886447977 5.7009355582 43.6166575016 -51.6375140567 47.9946494340
F 2.5338985726 -0.2944408527 3.9214021500 1.0919148250 -0.9269480170 -2.9920785863
F 3.0393602662 1.5846163346 5.1890596159 3.6409415151 3.2507960081 -1.5448718317
32
energy=-36602.0910626591 config_type=IL_pair name=BMIM-PF6 Properties=species:S:1:pos:R:3:forces:R:3
C 3.9764198451 0.5946634305 0.8551134216 3.4653024209 1.1127440591 0.0597639596
C 2.9546802773 0.1333188510 -0.1294163711 -0.9574360604 -1.2940937132 -0.9076178502
C 1.5312461743 0.1315435853 0.4408624727 0.1670366459 1.8653763054 0.1391980442
C 0.6554364561 -0.3570019304 -0.6849300060 1.1031452713 -1.4695434868 -1.6609148635
N -0.7393833402 -0.4154260558 -0.2978382890 1.1021298068 -1.5450267680 -0.7159715964
C -1.3121392545 -1.5089305889 0.2515975059 -2.9582401082 -3.3566740569 1.8828885856
C -2.6548784095 -1.2040274366 0.4923561957 2.3981127220 -4.7307298823 1.0841692278
N -2.8525549662 0.0648491525 0.0809134982 -3.2060295762 0.2387349067 1.2464239653
C -4.1461395587 0.7277479287 0.1780834733 -1.1726662088 -0.1178618537 -0.6603109532
C -1.6980524626 0.5251971662 -0.3898916458 4.0467041998 3.7744536643 -0.3630447549
H 4.9662540858 0.1668984712 0.5231587159 -0.6824408871 0.3748436777 0.5822359683
H 4.1303760915 1.7069728339 0.8145813506 -0.4634394109 -0.8094037540 0.3759425428
H 3.7960118738 0.2612223216 1.8817071844 -0.1705171575 0.0207050945 0.1860095309
H 3.1568025392 -0.9283354363 -0.4330042969 0.1436891060 0.8072963871 -0.1036070969
H 2.9338937272 0.7886637297 -1.0198817246 0.3408386529 -0.3170636915 -0.0501067282
H 1.2342623796 1.1858359054 0.6683039765 0.1045247762 -0.7096040182 0.4789252844
H 1.4262174619 -0.5433005952 1.2958135708 0.0094701942 0.1359620699 0.4541743433
H 1.0185836036 -1.3938066196 -0.9456247297 -0.7325326470 0.5451869675 0.1435196591
H 0.7941750797 0.2252430905 -1.6140089535 -0.2772372708 0.3995073651 0.1396458612
H -0.8134767282 -2.4537366546 0.4658021683 0.2886464587 -0.0632620030 -0.1434681466
H -3.3862013766 -1.8777233884 0.9300831577 -0.4809538214 0.1546154432 0.0406444243
H -4.6762384872 0.5467325354 -0.8024851063 -0.1119436794 0.4413526477 0.2497517565
H -4.7828859000 0.2871228181 0.9514518010 0.2426621428 -0.0941882419 0.5997166462
H -3.9906895430 1.8239986723 0.2643792500 -0.2839591299 0.2567492589 0.9127012220
H -1.5217195683 1.5122782136 -0.7965549726 -0.1733618800 1.0330816005 -0.2861574666
F -3.0119081651 3.8444023814 -1.8579690956 6.9667812975 5.5382669099 -4.4636304021
P -4.1579183263 2.6468907920 -1.7117464963 3.8155827792 2.9367912321 -4.7689207612
F -5.5559482517 1.8422616847 -2.1365464318 -4.4837098824 -9.6505474313 -6.3485765636
F -4.2364064333 3.6190511088 -0.3435526871 4.6851552233 0.4860241591 10.1628629110
F -5.6408640858 3.0905320284 -1.1075116641 -14.4032363678 0.1836518997 8.2159708376
F -4.7699646182 4.1506197313 -2.0801753168 -2.4052772393 8.3527776643 -8.3891999236
F -2.6351856323 2.1625814970 -1.2366360587 4.0691377715 -4.4947882220 1.9043362531
32
energy=-36609.0194528342 config_type=IL_pair name=BMIM-PF6 Properties=species:S:1:pos:R:3:forces:R:3
C 3.3792807996 0.2725622321 0.9094435125 -0.4012357275 0.9819519165 2.3391650861
C 3.0314837275 -0.6157741849 -0.2606536932 1.4255275689 -1.7125639679 0.0303486552
C 1.5244832366 -0.9043722924 -0.2785314902 1.5683192329 -1.3419377073 -1.4477644282
C 0.8415328232 0.4174275056 -0.4015646763 -0.0464802360 2.3909610505 -0.3377611567
N -0.6072786299 0.2938712745 -0.4308871760 3.3486202911 0.6477323601 0.1015561179
C -1.3701027776 0.1421019876 -1.5117125838 -4.2226118823 -0.7533626299 -4.1421763405
C -2.7036414685 0.0622798960 -1.1221994537 1.3698964620 -0.2937255376 -4.8163751481
N -2.6978420959 0.1719608585 0.2193808016 -3.8009417169 0.4555231860 2.2646844781
C -3.8707373645 0.1440477072 1.0814512582 -1.2267010358 -0.7197061503 0.6927117883
C -1.4261182732 0.3139477295 0.6571306430 2.0295881366 0.4398521497 4.5013138625
H 3.4708296241 1.3151806719 0.5558350733 0.4042761663 -0.0935994029 0.5213425347
H 2.5210349530 0.2428682892 1.6438527433 1.0285572254 0.1238978962 -0.3635418008
H 4.2794411985 -0.0883713105 1.4616517031 -0.3016547375 0.6283488253 -0.4924153957
H 3.3687246278 -0.1170403307 -1.1818231400 -0.0611954851 -0.4272911183 -0.2914112882
H 3.5978481769 -1.5700089429 -0.0951666265 -0.4736116316 0.4538326736 -0.7631940660
H 1.3355841880 -1.4595457558 -1.2205105072 -0.4239641394 -0.3600187597 0.5806104341
H 1.2713026372 -1.4736871183 0.6129555630 -0.5228911797 -0.3024407667 0.2982460924
H 1.0693461720 1.1305079239 0.4166162361 0.1362168430 -0.3104851442 0.0775661032
H 1.2157024783 0.8999636130 -1.3416037784 -0.5488164119 -0.1426973647 0.3127910896
H -1.0400867158 0.0861067578 -2.5386109230 0.6489039795 0.0396596083 -0.3693459288
H -3.5634987957 -0.0643164735 -1.7941996355 -0.0502460831 0.0580349415 0.5700713600
H -3.6668439364 0.6176148919 2.0609704894 0.2553618089 -0.2615628828 -0.0756323982
H -4.7226465729 0.6982376803 0.6348317005 0.1549426902 -0.2330674669 -0.1881521288
H -4.1388374460 -0.9392853900 1.2064896859 -0.3631274589 0.6209600108 0.3740136526
H -1.0989605663 0.4237227802 1.6697625177 0.1055772174 0.1000630652 0.7689409837
F 1.5769252641 1.3124360514 5.9171835245 0.2153403438 -0.3879932305 1.7416870190
P 1.6270875123 1.3264940964 4.2545818898 4.9300667868 3.5477947842 2.7533729233
F 3.1646620683 0.7853712076 4.5707328340 2.4126367586 -0.7125930352 -0.9416014687
F 0.1287849252 0.5955772176 4.2250971188 -15.9744848774 -0.6958285790 1.6925791104
F 0.2660385246 2.2366159608 4.5586112363 -2.5492571915 9.9298842029 0.3243104618
F 2.3457557615 2.7182617599 3.6415876357 0.3729113037 1.0625058578 -0.7247837748
F 1.2754824748 -0.2742901196 3.8733678200 10.5592688299 -12.7280512598 -4.9904060215
32
energy=-36572.3716149602 config_type=IL_pair name=BMIM-PF6 Properties=species:S:1:pos:R:3:forces:R:3
C 3.3851475160 0.2597620593 -0.8162998658 2.9283931764 -0.2370893779 -1.9400092725
C 2.1877385308 -0.2981743744 -0.1200193385 -0.7747030562 -2.1457597783 1.2802349375
C 1.6748336930 0.6117450217 1.0017583841 1.1092951095 1.3587897593 -0.6529992131
C 0.4735410719 -0.0293005580 1.6414404422 -0.5044816875 4.7616865051 -8.9161850320
N -0.6159760237 -0.2574021115 0.7527765991 5.6059314322 -0.7054462971 1.0715823915
C -0.8234884428 -1.3699348529 0.0204460494 -2.3822674323 -3.4955319848 -2.9221508168
C -1.9854133149 -1.1949330580 -0.7069681994 2.1904146229 -4.4110326592 -0.4898547823
N -2.4578031709 0.0219928551 -0.3992422280 -4.1214260213 1.1020236481 -3.0249348722
C -3.6491821929 0.6455365076 -0.9112200025 -2.2040084669 -0.9811186824 0.8747036245
C -1.6154985581 0.6021115385 0.5004366938 -2.4784792410 8.0390965857 3.0683176517
H 3.4438520020 1.3656307264 -0.8337931960 -0.2731535982 -0.2886251422 -0.0947890339
H 4.3488138018 -0.1160284284 -0.3648909919 -0.8840843806 0.4825674533 -0.1711344951
H 3.3935809102 -0.1346295756 -1.8669503353 0.1572490699 0.6258971952 0.5582510201
H 1.3663695067 -0.5494117929 -0.8184166728 0.1304530121 0.4399214970 0.0573496877
H 2.4722745069 -1.2829021479 0.3529461139 -0.2193696966 0.6913069902 -0.4528909764
H 2.4445736240 0.7154276936 1.7925273672 0.0746008590 -0.0165250563 -0.1135523031
H 1.4977838665 1.5995249757 0.5781517261 -0.2139585709 0.6705028637 -0.1153877987
H 0.7855965224 -1.0108837780 2.0468668183 -0.3197656879 -2.7719551767 -6.8030500601
H 0.1098150807 0.5682943558 2.5012858188 -1.3674887172 2.8829605765 -1.0542478740
H -0.1750827991 -2.2133803406 0.0335618949 0.8207417864 -0.8908872388 0.0314721419
H -2.4452423643 -1.9016600109 -1.4035273043 -0.1482717352 0.2486949247 -0.0547938396
H -3.5457506250 1.7176644220 -1.0712939908 0.4037012878 0.6901324500 -0.3570225934
H -4.0264691339 0.1219706848 -1.8057889683 0.3233981819 0.1641994676 -0.2842818111
H -4.4733230703 0.5275706946 -0.1511593680 -0.0169681455 0.3250342084 -0.2353307860
H -1.7706909369 1.6014094938 0.9172905911 0.4058059024 -0.4956390004 -0.3479065514
F 1.3723775186 -0.3123216849 4.8451099053 13.0014458335 38.5203947108 15.3812077424
P 0.6764295341 -0.6808463088 3.3632860306 18.0817717813 15.9468947854 -11.6767830322
F 1.0670541951 -1.3973710331 4.8388657235 4.1583373724 -39.8378163144 17.3139712967
F -0.0406313034 0.7163032741 3.9561793394 -4.4988501323 6.1033841445 1.6229616362
F 2.3072041536 -0.9759244139 3.4957909975 9.1059353973 -1.7056726606 -5.4293806485
F -0.3885567631 -1.9391551786 3.3490262700 -14.6682095818 -36.1018989688 -37.5509925267
F -0.4522330306 -1.4712811341 4.3342166185 -23.4226978416 11.0292368734 41.4396696066
32
energy=-36575.8689851092 config_type=IL_pair name=BMIM-PF6 Properties=species:S:1:pos:R:3:forces:R:3
C 3.5380616103 0.4653839253 0.6909062592 2.6732620529 3.8633369244 0.4974221525
C 3.0074782636 -0.6871746148 -0.0806250074 2.4819967809 3.9206378836 -6.4209030745
C 1.5219035659 -0.8417963348 -0.0473083832 2.1935552223 9.4846281163 -15.3920431328
C 0.7713131171 0.3372906390 -0.5966888863 1.5029709625 1.0762839315 -3.4019815928
N -0.6613886547 0.1672771970 -0.5549426633 2.1090300839 0.7182256563 0.2820490665
C -1.4511760053 -0.3689272616 -1.5072516026 -2.6852697977 -1.6430637257 -2.7834445635
C -2.7568141221 -0.3392282702 -1.0622706475 0.7689779452 -1.6815232156 -3.9926241698
N -2.7372098560 0.2189299988 0.1623055273 -2.9803230743 0.2656723085 1.7988627804
C -3.8862392860 0.4497356030 1.0050037610 -2.2103836976 -0.1213798862 1.1350141614
C -1.4652641184 0.5285592424 0.4750527339 2.1695771378 2.0919141488 4.1192591268
H 3.6778176774 1.3883065917 0.0648652010 -0.3008189820 -0.3702797524 0.3368589064
H 4.5711026386 0.2193805267 1.0190700220 -0.2833221301 0.0717869977 0.0866640346
H 2.9730879944 0.7122852676 1.6173270329 0.2362199673 0.3674059853 -0.8695518834
H 3.4472173500 -1.6143011886 0.3425310354 5.2145437043 1.7911188653 -3.1232959559
H 3.4161763733 -0.6218468354 -1.1085402156 -0.0070215883 0.1644946084 -0.5268178179
H 1.2016308204 -1.0077566225 0.9935590598 -0.5448095110 7.0602721678 2.4118894625
H 1.2625428966 -1.7602239170 -0.6124647376 -0.5195579108 2.2421912646 -2.0968558207
H 1.0345076780 0.4091996878 -1.6932630286 -0.5220375252 0.2661023029 0.4323792154
H 1.0715680835 1.2936761334 -0.1824514796 0.0571010840 0.7358690555 0.8599770679
H -1.0812901912 -0.7479767780 -2.4502466368 0.3293596653 -0.1361285091 -0.3843204432
H -3.6267066101 -0.6966585571 -1.5972425595 -0.5700110990 -0.0505069329 0.0921897222
H -4.5859452716 -0.4173992007 0.9698061682 0.3329839424 0.1410700758 -0.1384508035
H -4.4663515982 1.3315236811 0.6846727992 -0.0172921303 0.3056677927 -0.1239660120
H -3.6138260575 0.5912659350 2.0630968482 0.4043180077 0.0467519149 -0.0370852427
H -1.1621962980 0.9904751519 1.4050994001 0.2156395582 0.0875606139 0.2134217611
F 3.8540463858 -2.9548271588 0.5396872290 6.2027921682 -1.2189934872 -4.1230430637
P 2.2757111528 -2.4576829029 0.8022495594 16.6686436575 -3.4964371797 -7.5096634895
F 3.0533537348 -2.7712757213 2.2269154048 12.5014786758 -1.2139324749 6.9446508236
F 1.0065187019 -3.4243086303 1.3208350410 -40.6458325008 -45.3434072762 -47.4620378055
F 1.4868275116 -3.0353180019 2.1473355648 14.4183304765 16.1028557629 64.4700480607
F 0.7462176063 -1.8706398896 1.0866778260 -19.5677782241 2.6490835597 6.4639964905
F 2.4298275111 -1.0394177429 1.6896295209 0.3776585272 1.8166709597 8.2503706712
32
energy=-36597.7617425471 config_type=IL_pair name=BMIM-PF6 Properties=species:S:1:pos:R:3:forces:R:3
C -2.6573850563 0.9988226339 -0.3421785029 -1.6587175555 1.8379244823 -1.6763516453
C -2.1358839039 -0.3970696472 -0.5125549563 -0.9215923507 -0.7004911939 -1.7521293926
C -1.8112295436 -1.0850951817 0.7692385617 -0.2727546227 -3.6295192762 0.0020670498
C -0.7658729927 -0.4220705395 1.6112798001 -0.3075749137 0.9827730772 1.9749998632
N 0.5079278488 -0.3116658598 0.9298415330 -1.8636336706 -0.7057593358 1.5179142314
C 1.4781258968 -1.2484730557 0.9771852275 3.6462514832 -3.9739050920 0.3821772918
C 2.5640609979 -0.8478487046 0.2274516985 -2.1440114395 -2.9589327539 3.9822067328
N 2.2243933829 0.3530405218 -0.2726332873 1.7073548301 1.5615728444 -1.5095729930
C 3.0571693425 1.1821015421 -1.1366605655 -0.2599519465 5.5133159030 -0.5259573182
C 0.9883166363 0.6739408455 0.1504292602 -2.3522762156 4.7301602741 -1.2509166272
H -1.9142412108 1.7723854522 -0.1665137784 0.5074125609 0.1516280563 0.3811761824
H -3.4418309331 1.0537799075 0.4179282342 -0.0204866696 0.0055386464 0.3764142034
H -3.1556388362 1.2717090503 -1.3084426705 0.3074345480 0.0917293794 0.6559102091
H -2.9599208433 -0.9759151252 -0.9853024397 0.4283630428 0.0286842010 -0.0384313560
H -1.2804929339 -0.4281381597 -1.2038342771 0.1052015695 0.0837453953 -0.0007467300
H -1.3885084984 -2.0917319962 0.4811839057 -0.3247155846 0.6495745802 0.3809680660
H -2.7132885136 -1.3323131089 1.3635297237 0.0976040200 0.5084315287 0.0004551857
H -1.0456208020 0.5830772402 1.9576158581 -0.3104897648 0.3144319258 -0.0476044394
H -0.6269466147 -1.0373150453 2.5102311462 0.3402450707 -0.1107743292 0.3257059566
H 1.4759984765 -2.2032570077 1.5070992390 -0.7184976371 0.1899749085 0.2899289118
H 3.4957079412 -1.3702596003 0.0639909935 2.0045850221 0.1910835658 -1.3697559976
H 3.3330735238 2.1483617066 -0.6536527381 0.5582137625 -0.1436140130 1.3483051189
H 2.3810194910 1.4952173183 -1.9834765218 1.3203882259 1.3214814935 0.9983688047
H 3.9206125430 0.6329279209 -1.5124485969 1.0107633722 1.1718387258 1.1357921431
H 0.4704546019 1.5857888926 -0.1023790159 -0.2095790319 0.4071305166 -0.0448345849
F 5.3346904003 -1.1675813124 -2.7985204434 11.9908547389 8.0815046629 -3.8249820544
P 3.6936038832 -1.1639570953 -2.5713794260 4.1516736923 6.8785934298 -6.9319947228
F 2.9889412679 -2.6241841004 -2.9542956648 -10.3733918313 -12.4109473288 -20.8708765393
F 2.4714480760 -0.0398947191 -2.4398113522 -5.6869449553 -2.5604215506 -0.5548532086
F 2.8956264675 -2.3043982422 -1.6329215420 -9.6686541342 -1.2146968696 19.1262826210
F 4.4223045462 -1.4180374051 -1.0820265087 2.5333017522 7.2122086958 9.5803415183
F 4.6103401568 -2.5481825844 -2.4193540308 6.3681783242 -13.5115195543 -2.0634896823
32
energy=-36547.8513872107 config_type=IL_pair name=BMIM-PF6 Properties=species:S:1:pos:R:3:forces:R:3
C 3.9962346360 0.5734241532 -0.3180547990 2.4308595021 0.0475060813 -0.2566990639
C 2.9255783435 -0.4309132616 0.0401773234 0.4035181165 -1.9940016210 -0.5792725693
C 1.5384911915 0.0959456923 -0.2577221507 0.1960505398 1.3434124758 1.6830277300
C 0.5530636478 -0.9825479313 0.1362286529 -0.6062183748 -0.7706537821 0.4796418573
N -0.8183070274 -0.5412915473 -0.1251180758 6.2122211348 -3.8675381876 0.2008454320
C -1.4208362973 -0.7656700234 -1.3003184987 13.1479528070 1.1730521865 25.7375438018
C -2.6928490021 -0.2395089971 -1.2464972524 -5.5288511683 5.5533635588 17.4889387134
N -2.7955735767 0.2909665962 -0.0050125559 -3.2831654556 1.8185506809 -0.9977564216
C -3.9837985353 0.9592030842 0.4934356319 -1.7461382196 1.8492720446 0.4853053627
C -1.6648554041 0.1107300052 0.6759614500 -0.2369997053 2.8932784746 7.5762968813
H 3.5936930522 1.5529976444 -0.5854714246 -0.0212560726 0.3809471152 0.3662732391
H 4.5794938557 0.2233288524 -1.1975533660 -0.2288830615 0.1923962260 0.2960254507
H 4.7133020516 0.6125661613 0.5307192023 -0.1806770838 0.6639408810 -0.4836472960
H 3.0874732622 -1.3531172587 -0.5831730249 -0.1402618184 0.4751369143 0.6392339829
H 2.9975120342 -0.7385018406 1.0993887553 -0.0465475533 0.0819244464 -0.1203165716
H 1.4646634096 0.4097427112 -1.2981270440 -0.3502265475 0.2409306172 -0.3859789666
H 1.3379245185 0.9367412276 0.4674300126 0.1448685309 -0.1855170481 -1.1821714516
H 0.7518800453 -1.9286946842 -0.4041435085 -0.1491541877 0.0663864830 -0.1108530925
H 0.7088952281 -1.1939140792 1.2139078855 -0.2708900476 -0.0366262745 0.0343216294
H -1.0428959050 -1.2674526549 -2.1922093844 18.7555709894 -5.7290938167 2.3515125150
H -3.4326501570 -0.2571234338 -2.0356248678 -10.3403301205 4.6366323793 -1.7969017343
H -3.7659853426 1.9969895938 0.8294950428 0.2772776630 -0.2168185179 -0.0261807218
H -4.4513338569 0.4490795070 1.3431076818 -0.0061453147 -0.4901964417 0.3339341492
H -4.7474539999 1.0661152347 -0.3015575121 0.2948351136 -0.3693499453 -0.1018984324
H -1.4316661720 0.4209052489 1.6970060458 -0.4983768671 -0.3598481349 -0.1265723274
F -0.7205994710 -1.1870193116 -3.3141597419 9.2808702522 -10.6997620523 -4.3550796448
P -2.1224399425 -0.8749705090 -2.4945772166 -17.2652828978 -15.8564139415 -20.6287958324
F -2.4431044151 -0.8548874029 -4.1283547145 -23.0338923110 -54.3200195286 -38.4430246631
F -3.0304289161 0.3332254420 -3.1773676589 -41.9150253243 19.4153702898 26.4052601047
F -1.1774191405 0.4365491623 -2.8625338378 20.2879356276 20.1899405810 23.5010968946
F -3.5581012709 -1.4314969236 -3.1169145379 -14.3196611137 -10.6809624637 7.0135663246
F -1.9774776343 0.0567042056 -3.8872450513 48.7296930361 44.5633854486 -44.9957637843
32
energy=-36528.0356445121 config_type=IL_pair name=BMIM-PF6 Properties=species:S:1:pos:R:3:forces:R:3
C -3.7181466921 0.1104424174 0.1398625533 -0.6600825044 47.1907277095 -65.6483327570
C -2.8064035924 0.9130346507 -0.7506336653 -0.6659002751 1.1580725994 -1.3189579698
C -1.3704587819 0.9288659290 -0.2911549443 1.3699090557 1.1312364486 0.0101342910
C -0.7936488959 -0.4601464097 -0.2416120654 3.8499654217 1.0881333765 -4.6632453287
N 0.5957062771 -0.4507505287 0.2023697128 -5.5376781839 -0.0119554484 -1.5944311720
C 1.0067044905 -0.5458078167 1.4732573875 2.7883349248 -0.1166996374 3.9042634641
C 2.3931204853 -0.4937621490 1.4193405202 -2.4294575315 -0.4198372340 4.3055364477
N 2.7330440435 -0.3705850779 0.1200302117 5.5926308089 0.0704726310 -0.4570795417
C 4.1214587547 -0.2825966687 -0.3517640807 0.1204373346 1.0030843246 -0.6517430871
C 1.6266219956 -0.3434129672 -0.6371827361 0.2146949524 0.4499290528 -4.9593499051
H -3.2393279524 -0.2142293612 1.0857116544 113.8547612772 119.0649513012 11.0477343174
H -4.0267814948 -0.8339908556 -0.3845114708 -0.6675388965 1.1616699587 -4.9290725340
H -4.6047692064 0.7474482593 0.3984679130 1.0828045451 2.1351435976 -0.5556090323
H -3.1515993632 1.9713698714 -0.8331803482 -0.0263760742 -0.3764156814 0.0453225000
H -2.8405294738 0.5160084762 -1.7971199571 0.0180406321 0.0838551819 0.5120056571
H -0.8160624951 1.5424355281 -1.0118712428 0.3148039185 0.3379112260 -0.0819055823
H -1.2742418072 1.3921186892 0.6956340120 -0.1678375367 0.2512453922 0.2533320062
H -0.8625379109 -0.8992104431 -1.2533169014 0.5610363416 0.1108689204 -0.1133644776
H -1.3505651754 -1.1002080233 0.4675920673 1.5422154563 0.4904272381 -1.2408448489
H 0.4053386881 -0.6447007993 2.3856219083 -0.3497025063 0.0259311143 -0.5072613196
H 3.0208046355 -0.5478235511 2.2990894668 0.8618278009 0.0253345392 -0.1234691976
H 4.5660403258 0.6412188384 0.0792485843 0.3762309587 -0.4113178504 0.1619937097
H 4.1187710732 -0.1268099734 -1.4526258858 0.0222865449 -0.4560354340 0.2895466666
H 4.6587603868 -1.1965747335 -0.0560695722 0.4767237844 -0.0092244357 -0.0823977224
H 1.6087016853 -0.2523333013 -1.7051831215 -0.1756215542 0.0634679818 -0.5755483372
F -3.8549037910 -1.6148424159 2.4291406146 14.1525233714 -9.8474322460 15.8990475857
P -3.6709363950 -0.6688614536 1.0485256029 -102.2972010543 -164.8011155362 37.7587940919
F -4.4409634189 0.5497166334 1.8946782642 -6.9367093603 11.4839002625 8.9060572531
F -2.1538246310 -1.3504564403 1.0979320637 1.2926100195 -6.9580862162 5.3075995705
F -5.3023147819 -0.4633369460 0.8470498010 -26.3293370468 5.3886247875 -23.4720779544
F -5.0493217414 -1.1141264791 1.9057322353 -17.9085888755 -13.0701208448 16.5676392707
F -2.7728696919 0.4522334538 1.8674426482 15.6536555089 3.7609530475 5.9978658306
32
energy=-36588.6664119417 config_type=IL_pair name=BMIM-PF6 Properties=species:S:1:pos:R:3:forces:R:3
C -3.9619644129 0.8336367487 -0.3361164083 -1.4426794195 0.3665147747 -1.2485521351
C -2.9555158511 -0.1972039624 0.1048390219 -0.3935149176 -1.0240495916 0.2771351308
C -1.5355728350 0.1990156225 -0.2402691094 0.1658558327 2.2313812870 1.9125189725
C -0.6360282642 -0.9094253709 0.2517149541 -0.2403007911 -0.9615554739 -1.1487125342
N 0.7708473814 -0.6125479209 -0.0400517376 -1.3697758672 -1.0067992198 0.2326113877
C 1.4202011761 -0.9724176735 -1.1840353451 1.5167814321 -1.1913053847 -3.0793818627
C 2.7137576530 -0.5104307211 -1.0682760776 -1.4490968926 -2.3986434891 -3.8636630926
N 2.8200257990 0.1085003226 0.1214066132 1.9167188403 1.7837986225 1.0765535996
C 4.0478361582 0.7396829847 0.6228727749 2.9177362119 2.6256883755 -11.4883471071
C 1.6234623028 0.0505798903 0.7647297295 -0.9817713986 1.0701740400 -4.5860434141
H -4.1103072811 1.6408512670 0.3991384947 0.2119031198 0.1043351391 -0.2650575834
H -3.6321167047 1.2176030220 -1.3322520685 -0.5313461116 0.2130921965 0.6637716712
H -4.9281384530 0.3032321106 -0.4734487567 0.1069426019 0.5576630709 0.0076177789
H -3.0472128205 -0.3654916793 1.1885603111 0.0817428349 -0.2012376497 0.0527900811
H -3.1715070519 -1.1415918433 -0.4119806014 -0.1525769548 -0.2910627925 0.0660155246
H -1.4028015310 0.4654431414 -1.2846450052 0.1248128637 -0.1052969377 -0.6337740157
H -1.2920631884 1.0874634680 0.3985697176 -0.0165490916 -0.1634214164 -0.7976686283
H -0.8991962107 -1.8203589849 -0.3252614064 0.1708114878 -0.2330942839 0.5376701841
H -0.8132576114 -1.0279425191 1.3231101340 0.2784825786 -0.3978389795 0.4929111338
H 0.9778920560 -1.5226451907 -2.0203250389 -0.1800961339 -0.0406733046 0.2234839593
H 3.4602655925 -0.6569482897 -1.8409018387 0.7553439240 0.2747494982 0.1428481163
H 4.9033540243 0.1216056300 0.2908869306 -0.3622454564 0.1723544622 -0.4720372950
H 4.0684106457 0.7393137062 1.7312719525 2.3235551466 5.0158283327 -12.6347313151
H 4.1650818568 1.7598626025 0.2038189353 -0.2680166396 -0.4305928904 -0.5070116456
H 1.4145475703 0.4702136394 1.7499278375 -0.0884131982 0.9439526314 1.5767948472
F 3.9007012228 0.4641758816 2.5176566641 -3.3703731764 -2.7438946776 20.9297345073
P 3.0371222108 -0.5936312668 3.4786021721 11.4489104124 8.7328327334 23.1941260576
F 1.7783177078 0.2785500301 2.8010378080 -3.9145794718 5.2458487179 2.9515304119
F 2.8272812328 -1.5271171355 2.1075768198 27.3360655065 10.2473256369 -59.4492909332
F 3.6652136846 -2.1005047970 3.1730519588 12.5513146008 -15.7618218165 16.2202472944
F 1.9682585491 -1.6348677912 2.7240321734 -53.3267728457 -15.6434355123 25.2725340079
F 4.6567232105 -0.7268039748 3.8314592904 6.1855879967 3.0110310228 4.3415048793
32
energy=-36600.9652253797 config_type=IL_pair name=BMIM-PF6 Properties=species:S:1:pos:R:3:forces:R:3
C 3.2805962230 0.9687674689 0.3685952369 1.1427061479 -0.2868544585 0.4472582746
C 1.9557269044 0.5035494117 -0.1990631559 -0.2111347497 1.3189190217 -1.6873970501
C 1.8178355769 -0.9869342654 0.0082134642 1.3920458189 -0.7523551409 0.4363787392
C 0.5158522933 -1.5106411389 -0.5370198947 0.2873309980 -1.1566819777 -2.4141622935
N -0.6538937151 -0.9374246978 0.0497998248 2.1041712832 -1.4551882522 -0.6161962655
C -1.3190229111 -1.3843367410 1.1299911035 -2.2747088726 -1.0986704196 3.2801052062
C -2.3756533311 -0.5315491657 1.3364463064 -0.3708878278 -3.7576945015 3.8894319854
N -2.3622652368 0.4320866015 0.3925682237 -3.6083747365 2.7989096094 0.7573409667
C -3.3114175903 1.5421778977 0.2456380422 0.6022350840 1.3391831307 1.0530995080
C -1.3048245617 0.1656678701 -0.3810810563 2.5344799194 3.3732988114 -7.1769000700
H 3.1856631298 0.9524342947 1.4744089551 0.6044964695 0.2542666786 -0.3487520131
H 4.0276769714 0.2180999646 0.0322294739 0.1127694487 0.4725657137 0.4981987843
H 3.6022300693 1.9517163036 -0.0160638345 -0.2121092259 0.0150068803 0.3495152037
H 1.9618698247 0.7024485706 -1.2900410785 -0.2430230888 0.0434194548 0.1663375393
H 1.1254698039 1.0723431811 0.2374857938 -0.2613112837 -0.0829051609 0.1034958243
H 1.9644118468 -1.1868225424 1.0687177101 -0.1777779220 -0.4593712883 0.5839525590
H 2.6179414579 -1.5240002875 -0.5420902214 0.0018389716 0.2378529274 0.2121269056
H 0.4451213815 -2.6131435936 -0.4787486885 0.0712840212 -0.0507531769 0.2037743395
H 0.5098247685 -1.2350496940 -1.6312600101 -0.5763237061 -0.3339171245 0.1355592311
H -1.0059991427 -2.2655482329 1.6760065381 -0.0005577594 -0.3002229073 0.2735871728
H -3.0969556820 -0.6401477279 2.1445380824 -0.3618128143 0.3798330295 -0.0453405386
H -3.9777779744 1.5363438622 1.1245723843 -0.2769954190 -0.2146232494 -0.2194536693
H -2.7570948559 2.5154075837 0.2984248061 -0.1466523117 -0.3580110941 -0.2448621837
H -3.8665202554 1.5164405730 -0.6947650175 -0.3911801256 -0.2559511316 -0.5258808002
H -0.9787949950 0.7381145037 -1.2518823743 -0.2023867512 -0.0111410386 0.2119167169
F -3.3988835801 -0.2553804788 -4.0655349830 0.0180426834 3.0260113629 -0.5894231993
P -2.5574045987 -1.5056324997 -3.3589050459 -10.3466048348 12.7458378737 8.3782104873
F -3.8208373776 -2.3405586772 -2.6820873794 -4.3950669030 -1.3050688186 6.6400124902
F -2.2738776720 -3.1379010862 -3.6561228958 2.1026381561 -26.1103967838 14.5165018505
F -1.5369422507 -2.3679219012 -4.3464883431 14.6177438015 -1.5878343915 -21.2110835420
F -3.4009142742 -2.3507498970 -4.5061350523 -9.9369870641 5.7957491202 -12.5571606421
F -0.9106135311 -1.2608543069 -3.2824302003 8.4001314424 7.7744180953 5.4970866938
