30
energy=-22756.5723459791 config_type=IL_pair name=BMIM-BF4 Properties=species:S:1:pos:R:3:forces:R:3
C 3.4422951019 0.4135438132 0.3476850391 2.1401297393 0.9379080639 0.3488386777
C 2.9656477794 -0.7855507847 -0.4434965940 0.3649887116 -1.1220157251 0.3382158047
C 1.4954887273 -0.6056763896 -0.8158209863 -0.4062761094 1.1853784075 -1.3346939549
C 0.7536987624 -0.4854981382 0.5052226707 2.8626142402 2.5339828847 -2.4391421131
N -0.6827720481 -0.3063929704 0.3143677019 1.9588907314 -0.6552691982 0.3050799627
C -1.5681792896 -1.3378737326 0.2376678672 -2.0866692313 -2.9859330931 -0.1985727234
C -2.8326428225 -0.8061445182 0.0562574632 0.6940100081 -3.2996395198 0.1483119883
N -2.6591601848 0.5340366988 0.0304902557 -2.1771445059 2.1794394598 -0.1210902066
C -3.7384462241 1.5190628558 -0.1433986723 0.2986690584 2.3692055578 -0.2340185435
C -1.3549163184 0.8402116917 0.1869651822 0.9448036667 2.6328606266 0.1292806968
H 3.0122281287 1.3119628647 -0.1289593767 0.3848696219 0.2503609337 0.5270553557
H 3.1965229144 0.3299314959 1.4255377475 -0.2221423358 0.2210235304 -0.1916484377
H 4.5674663241 0.4308267192 0.2707454753 -0.9945950907 0.4157804494 0.1674503847
H 3.0519195823 -1.6502519410 0.2461936160 0.1342525046 -0.2339887881 -0.6970174051
H 3.6157335865 -0.9099755553 -1.3224929979 -0.1900197611 -0.3139330978 -0.1566261801
H 1.3410625519 0.3662464693 -1.3284388567 0.3510925961 -0.3407941255 -0.5566510480
H 1.1351983079 -1.4055681017 -1.4603086433 -0.3022694857 -0.5076675057 -0.2334731117
H 1.2044612483 0.4231700011 0.9961409507 -1.1868197383 -0.8066079717 0.0742705646
H 0.9698040288 -1.3680544001 1.1290977695 -1.1078927261 -0.4804779730 1.8814091700
H -1.3027281856 -2.4033138985 0.3100023148 0.2822413450 0.3220862962 0.0964523190
H -3.7676540815 -1.3429004115 -0.0445562005 -0.5807648228 0.1129839308 -0.0600172271
H -3.5366668513 2.3873706433 0.5369420272 -0.3196911496 -0.6109408535 -0.0986328162
H -3.6654965723 1.9352320072 -1.1725679901 -0.3963195923 -0.2975243495 0.0411532961
H -4.7160512073 1.0771438729 0.0606058589 -0.2985965712 -0.2591731188 0.0292200818
H -0.9268132585 1.8384617088 0.2061183780 0.1378206701 0.4078846630 0.0853449499
B 0.6703130457 -0.7051532502 3.4016534756 0.5008502337 1.2456625695 2.3394395044
F 0.3361701371 -1.6234060573 2.3310437957 -0.3418370957 -1.9466637208 2.1607076279
F -0.0309969356 0.5352900652 3.1631796867 0.4005862423 -0.9804708053 -0.1448565042
F 2.0860352728 -0.4611038945 3.4166623745 -1.0216539453 -0.2715888332 -0.6003081721
F 0.2739850720 -1.2502468225 4.6772818385 0.1702051808 0.3049440442 -1.6071797160
30
energy=-22757.1812806235 config_type=IL_pair name=BMIM-BF4 Properties=species:S:1:pos:R:3:forces:R:3
C 3.9821198642 0.6974848243 0.1944185531 1.3579709627 -0.1701653962 0.9590647481
C 2.9663324808 -0.3177410836 -0.2873995913 -0.1825688527 -0.5762547356 -0.4573602487
C 1.5834625940 0.1465094655 0.1825280084 0.2791296483 0.6579082172 1.7638346411
C 0.6023940921 -0.8664600004 -0.3026094127 1.3117790660 1.1382364622 1.1130337838
N -0.7780175072 -0.5878548229 0.0537741974 0.9888730407 0.1600735712 -0.5018323768
C -1.4452126267 -0.9810992136 1.1639399457 -2.4501469839 -0.9780927324 3.2014084088
C -2.7475274744 -0.4899726714 1.0947308614 0.9694019979 -2.1975379484 3.2052736708
N -2.8475705763 0.1927088058 -0.0563962147 -0.8199202469 1.6642947211 -1.7024566173
C -4.0291883180 0.8964531633 -0.5778118330 -1.0603982229 -0.4804185415 -1.9640396615
C -1.6449862014 0.1283550837 -0.6838564238 0.5779075746 1.2963519958 -2.6602249680
H 4.9799731369 0.4647781157 -0.2397200382 -0.2872723753 0.3218224014 0.3668928223
H 4.0171245811 0.5801463603 1.3166932189 0.3208894623 0.6740388703 -1.0129050939
H 3.6719313697 1.7123551187 -0.0989486141 0.2269521859 0.0641843025 0.2134435396
H 3.1868239522 -1.3142681782 0.1546609951 -0.0556384978 0.2724390082 -0.4248635282
H 2.9390423681 -0.4046280651 -1.3898979345 0.2383665065 -0.2978990712 0.1202718302
H 1.3595662145 1.1225112459 -0.2572302873 -0.0029962519 0.5604791301 0.1296620396
H 1.6056150066 0.2188055001 1.2960102150 -0.1384592095 0.3136001921 -0.3713419439
H 0.6749063364 -0.8623421642 -1.4284483898 -0.9792916194 -0.6572799416 -0.8718492347
H 0.8776915945 -1.8967806513 -0.0142361257 -0.7385536689 -1.0315384212 -0.3133141552
H -1.0348638867 -1.5786304983 1.9723344062 0.4736816706 -0.2410380762 0.0875797910
H -3.5550843824 -0.6094466222 1.8051407282 -0.4635268024 0.0148148395 0.2471162548
H -3.7185256458 1.5769396157 -1.3865307152 0.2208915462 0.2094222061 0.1175459186
H -4.6989544420 0.1410357027 -1.0682983065 0.0831213356 0.3862812487 0.5427797802
H -4.5539472734 1.4540293108 0.1936178570 -0.2522898956 0.1938942649 0.6606070078
H -1.3931052569 0.5771116586 -1.6364650996 0.0081336547 0.2630120108 -0.5635103839
B 1.0187065820 -2.7779731175 -2.1999602964 1.5575591570 -3.3423945289 -1.3751622050
F 0.6597736641 -3.7864030715 -3.1836188616 0.4254454355 1.5983302558 1.3460099814
F 0.3889565873 -1.5357780382 -2.5567217291 -0.0122827856 0.3652443542 -1.4130318448
F 2.4595985492 -2.6090455445 -2.1352313734 -2.1139860992 0.0429400387 -0.0121964356
F 0.5010392915 -3.1938480057 -0.9103296248 0.5118810867 -0.2380068448 -0.4387236289
30
energy=-22756.6424144894 config_type=IL_pair name=BMIM-BF4 Properties=species:S:1:pos:R:3:forces:R:3
C -3.9376722163 0.5201847025 0.5416648688 -0.5685484351 0.5025425988 0.0253302910
C -2.8753965081 -0.5817413914 0.5387104641 -0.0320465022 -0.2003198413 1.5275640436
C -1.5222902972 -0.0198456009 0.1210219937 0.0478452776 1.1283629207 0.8764514109
C -0.4738601526 -1.1206275747 0.1208660573 -1.7858721541 -1.6193353011 -0.6723064673
N 0.8030365950 -0.5646770150 -0.2786909035 -1.1107732026 -0.1970300601 1.4147701940
C 1.3387823034 -0.4448958994 -1.5084164094 2.1910105899 0.6174949483 -2.8732315720
C 2.5813542012 0.1556406526 -1.3404119519 -0.7115478347 -0.8637305608 -4.1353365795
N 2.7718809302 0.3852996721 -0.0271539558 0.9833610781 1.0419551796 0.8065416326
C 3.9103291614 0.9905495792 0.6415839223 1.0723449722 0.1449672354 2.6962929612
C 1.6787020594 -0.0581888241 0.6190821566 -0.4042844057 -0.9726130234 3.7743308929
H -4.9217582762 0.0287195935 0.5984383460 -0.1741975703 0.4255341118 -0.2854668876
H -3.8348152265 1.1605214796 1.4377371537 0.0592980518 -0.0575505856 -0.2424226175
H -3.8255251242 1.1604249341 -0.3591592846 -0.4892810615 -0.2956046337 0.2725669805
H -2.7492606018 -0.9122669354 1.6012234439 -0.2412623479 -0.3380179555 -0.7086201578
H -3.1830681091 -1.4354181378 -0.0757664436 0.0092617541 -0.1828510998 -0.1933167768
H -1.5531055263 0.4765425721 -0.8508258502 -0.0887057498 0.1067248584 -0.4620483288
H -1.2344706802 0.7365798296 0.8808472543 -0.0099299663 0.0131418048 -0.3321037822
H -0.3847556687 -1.5980173649 1.1018621945 0.2685095403 -0.1667969463 0.4194679552
H -0.8074228421 -1.9012292813 -0.6036548020 0.5970166871 0.1272071676 0.1486086787
H 0.8701425594 -0.7632967754 -2.4317952479 -0.3558074883 -0.2564524588 -0.2843295414
H 3.2941831041 0.4070798373 -2.1148671859 0.4869262675 0.1814044471 -0.2209425969
H 4.5998426669 1.4769141613 -0.0574475865 0.0025564991 0.1193428520 -0.2590343950
H 3.4767913964 1.6988880483 1.3893721877 0.5012866517 0.1747520410 -0.4847098975
H 4.4442411083 0.2123367594 1.2630661951 -0.1639367235 0.3697542916 -0.7807573772
H 1.5341151436 -0.0094770214 1.7097231895 -0.0398080177 -0.1082030481 -0.2401930235
B 2.9099605248 -3.6172277308 0.5878582608 0.0604913884 -1.0598996320 1.0410082717
F 4.1555695564 -3.3477747497 1.2781431603 -1.4852056353 -0.0813783907 -0.8856672473
F 3.0445874117 -4.7604708567 -0.2846537045 -0.0276179758 1.3632279559 0.4848445621
F 1.8420536625 -3.9110373799 1.5377680665 1.0048215991 0.5403515837 -0.7596562602
F 2.4835391441 -2.4400703821 -0.1618433638 0.4106465247 -0.4666457827 0.3309781219
30
energy=-22730.7187491518 config_type=IL_pair name=BMIM-BF4 Properties=species:S:1:pos:R:3:forces:R:3
C 3.2656872859 -0.3841142136 -1.2209795897 1.3678624900 0.1218399353 -0.4744408588
C 1.9524027363 0.3035140313 -0.8217418098 -0.0292484484 -0.2521325671 -2.3172636241
C 1.8912621046 0.2230811739 0.6684217639 1.7713503217 -0.7261821849 0.8547127175
C 0.6807840287 0.8375614795 1.2891898368 1.4239738549 2.2960589226 0.0800304034
N -0.5671076994 0.2679796956 0.8778944010 0.2614805285 5.6899550348 -2.7293142488
C -1.1980213438 -0.7606385212 1.4692873632 8.3884669105 9.1809637338 -30.5516292596
C -2.3847322133 -1.0412740968 0.7964428652 -1.0265065879 -0.6724270593 -2.3958706142
N -2.4420045899 -0.1500511126 -0.2124893675 -1.4077299544 -0.4079731573 -1.7427605794
C -3.5432027059 -0.0934900154 -1.1789268065 -1.2665181842 0.3797606588 -0.0027087153
C -1.3453554220 0.6334274319 -0.1563835037 0.0074882720 4.3228459525 -3.4186226010
H 4.0562148897 -0.1698759940 -0.4709458332 -0.1997890144 0.0884043102 -0.4022280964
H 3.1574696318 -1.4711307540 -1.2437002288 -0.1431187069 -0.3107769076 -0.1056883387
H 3.6226520065 -0.0395644559 -2.2048957351 0.0181306678 -0.1664900679 -0.0026025583
H 1.1244203393 -0.2443105027 -1.3292804293 0.0973614560 0.4289258871 0.4268505024
H 1.9476847490 1.3505940832 -1.1886805008 -0.0875003210 -0.1959961867 0.2163664445
H 2.7700800694 0.7778853049 1.0583663059 -0.1580341953 -0.1707673949 0.0547982861
H 2.0429323825 -0.8342740375 0.9674756864 -0.3446148932 0.2146821571 0.1196785777
H 0.6886103263 1.9197770510 1.0456208593 -0.1809472193 -0.0234103090 0.0347280281
H 0.7931190077 0.7043802800 2.3910449195 -0.9837816239 -0.0033002118 -0.2812693948
H -0.8084527293 -1.2766240446 2.3464584060 56.7141002329 3.2677203494 -4.3507941798
H -3.0780083979 -1.8153740036 1.0618870228 -0.8700177608 -0.4267351483 -0.6796754039
H -4.4843354740 -0.2444385705 -0.5888455617 0.3924943957 -0.1125605050 -0.6869612546
H -3.5612460720 0.9037243776 -1.6167944659 -0.0854877409 0.5740494222 -0.3165725971
H -3.4329945319 -0.8302367594 -1.9916280547 -0.0303785580 -0.2847369991 0.0752541249
H -1.1478583783 1.4334721727 -0.8574511415 -0.5118418842 0.8742470409 -0.0800319739
B -1.3345685573 -0.3467595981 3.3730642828 -1.8914849200 10.1427386539 13.1985877683
F -1.4673517430 -1.4214592340 2.4304292515 -62.2044182404 -30.6899104087 36.2397581221
F -2.1433707343 0.7893227680 3.0013149302 1.2686362357 -2.2058346019 0.2832268566
F 0.0627881518 -0.0095060815 3.4730453984 -0.9853624564 -1.0492182857 1.7415834565
F -1.7641831412 -0.7932897053 4.6880883061 0.7100339178 0.1084134245 -2.7911048306
30
energy=-22754.2128718958 config_type=IL_pair name=BMIM-BF4 Properties=species:S:1:pos:R:3:forces:R:3
C 3.2213189610 1.1591787424 -0.2263390900 1.9461293625 1.9517680890 -0.7794211089
C 3.0846411173 -0.3542970395 -0.1951842008 -0.4814118699 -0.4001940603 2.1571862278
C 1.6141121461 -0.6945000025 -0.4535578359 0.7773038772 -0.9032682234 -2.0059197486
C 0.8250452023 -0.0355742506 0.6556408546 1.6197391496 1.0522159292 0.3431566898
N -0.5879374324 -0.2632921371 0.5550327290 -0.1084537415 0.6849408209 0.5950266515
C -1.2679355745 -1.2850102742 1.1036403120 0.7660492660 0.0887290378 3.0658809345
C -2.6053722784 -1.1011175282 0.7468929719 -1.9891577302 -0.6999670315 2.4733952015
N -2.7118831560 0.0198089067 -0.0056566419 -1.2959014450 0.4045593570 0.0917370490
C -3.9219856344 0.5927415451 -0.5945555498 -0.6766368450 -0.0189984259 -0.6712019639
C -1.4678672770 0.5118025309 -0.1078361091 2.6897773126 4.8036360419 -2.9792206371
H 2.6236955791 1.6291375763 -1.0389558512 0.0734277036 -0.2856781784 0.3815918324
H 2.9470688519 1.6245354648 0.7442334956 0.2853764333 -0.0862044567 -0.4816932696
H 4.2926254925 1.4063874920 -0.4736676251 -0.8657860745 0.0987660173 0.5590111920
H 3.7708583025 -0.8425638195 -0.8836073414 0.2390297790 -0.3762658781 -0.2722456540
H 3.2510095985 -0.6745226712 0.8719910333 0.7032458127 -0.1286163405 -1.0388628923
H 1.3699716967 -0.2703320735 -1.4471030507 -0.4896681862 -0.1384037250 0.2535110915
H 1.4795924372 -1.7810694237 -0.5117088773 -0.3372738461 -0.2534745019 0.2053430187
H 1.1970425087 -0.3676280696 1.6391103049 -0.2184203495 -0.1449870383 0.1613196507
H 0.9982418202 1.0454439407 0.5730361980 -0.2105077558 0.2263935942 0.2304059309
H -0.8875330761 -2.1135308836 1.7131873592 0.6773991037 0.6875554425 -0.0186801571
H -3.4245382588 -1.7620467769 1.0347157123 -2.4374346143 2.6011545242 1.5029752010
H -4.7762932069 -0.0020343293 -0.2091026698 0.0728414562 0.2478678231 -0.2422309269
H -3.8260528543 0.4860757577 -1.7012324469 -0.4616306755 0.3220720344 0.2893031797
H -3.9995747812 1.6490660871 -0.2704683161 -0.1578023873 -0.0369165222 -0.2756391545
H -1.1982501842 1.4233412357 -0.6568223642 0.0124759615 -0.3072535420 0.0243706699
B -2.0908404769 -3.4341115305 -0.6502905118 1.5040132263 -3.3787001836 -4.3482460646
F -2.4214815464 -2.7166278429 0.5618530509 -0.5229954450 -8.1116984988 -1.9973413783
F -3.1901851087 -4.3006575182 -0.9975703012 1.1089171276 1.3884357150 0.7884113831
F -0.8979746546 -4.2285600606 -0.4064717441 -1.6160126234 1.2838793689 0.2157184580
F -1.8111665383 -2.5144809813 -1.7320528979 -0.6125171489 -0.5575533603 1.7739948677
30
energy=-22756.6366362630 config_type=IL_pair name=BMIM-BF4 Properties=species:S:1:pos:R:3:forces:R:3
C -3.9787837550 0.3335481024 0.1347271113 -0.1576444056 1.0574471124 -1.0334519094
C -2.8793725398 -0.7078327662 0.3684677105 -1.9709551912 -1.2469223764 -1.0091588983
C -1.5587808995 -0.0701678850 0.0463167750 0.4998805911 1.1538986721 0.5991279114
C -0.4533247459 -1.0927985976 0.2735875670 -1.0593253644 -0.5638048582 0.3142288187
N 0.8525887135 -0.5280680766 -0.0237912403 -0.6128635297 -0.4987270033 1.5642020998
C 1.4610911776 -0.5566032746 -1.2241653398 0.8276719562 -0.0241231527 -3.6949307705
C 2.6797009868 0.0794629586 -1.1042241244 -0.8505200487 -1.2051193364 -2.4587959484
N 2.7668095849 0.4765169402 0.1843900386 2.4690000840 1.1939215562 1.3908419912
C 3.8966436953 1.2003064172 0.7834602480 0.3096574789 2.7207088934 0.2808881139
C 1.6631150256 0.1168622439 0.8637381280 -1.4806760946 0.0657124650 2.2891246802
H -3.6083810419 0.9536156346 -0.7326731332 -1.0326973636 -0.4900000416 0.5856364015
H -4.0758798185 1.0229985469 0.9849944156 -0.2480361549 -0.0896929564 0.1267450888
H -4.9439665169 -0.1627360839 -0.1064072248 0.3020285019 0.5165254626 0.1740842180
H -2.9430125945 -1.1175052785 1.3784453140 0.1973890201 -0.2771438089 0.3554931497
H -3.0868169945 -1.5150185499 -0.3788366055 0.3692475660 0.0732649292 0.6938844483
H -1.4098890277 0.7744742913 0.7575689605 0.1340374591 -0.0120511651 -0.6827907888
H -1.5852066815 0.2681662311 -1.0016082149 0.3449074018 0.2950671003 0.0938416164
H -0.6101000395 -1.9315812893 -0.4249774397 0.1003993498 -0.4406420164 0.3506760464
H -0.4891716532 -1.3715871740 1.3441792249 0.2542851853 -0.5454968181 -0.2079182836
H 1.0166452296 -1.0197368655 -2.1092972591 -0.0693087282 -0.0343658604 -0.0554658866
H 3.3978157662 0.2198024836 -1.8871046030 0.9483693972 0.5366212156 -0.5694689042
H 4.6462080414 1.4302409330 -0.0010815479 0.0244817718 -0.5414874316 0.2665965896
H 4.2954889310 0.7057663550 1.6738899665 0.3556537978 -0.6177912053 0.0474905076
H 3.5172594312 2.2038680744 1.1261652726 0.1465056440 -0.5890362308 -0.1832253657
H 1.4293197251 0.2880066289 1.9082555996 0.0816903333 0.1281854873 0.3934238697
B 1.3555699876 2.2970493334 -3.2891747599 0.6395209344 0.3804125436 -2.0631738552
F 1.0583793791 1.3575241873 -4.3557511230 0.1639697267 0.5866306525 1.3374457034
F 0.7483726424 3.5600379491 -3.6199675612 0.1725023632 -0.9726153725 0.7403004898
F 2.7864245532 2.4868035924 -3.2274662389 -0.9844447543 -0.4515936585 0.4505290033
F 0.8642275731 1.7913284970 -2.0257782149 0.1273318214 -0.1030896439 -0.1092716961
30
energy=-22756.7760208220 config_type=IL_pair name=BMIM-BF4 Properties=species:S:1:pos:R:3:forces:R:3
C -3.3107783147 0.6227542515 -0.7723897222 -1.5137037702 -0.5145288664 -0.7663253697
C -3.0989752387 -0.0232120825 0.5837898441 -0.1626734700 -0.8765829409 0.4801739312
C -1.6228624247 0.1300515757 0.9282334802 -0.2493163008 0.7321969468 1.7083023907
C -0.8345076504 -0.5742507706 -0.1560364004 -1.3812390877 0.2991861682 -1.5610829438
N 0.5978012179 -0.4969602642 0.0629433045 -0.3368234180 0.3545639041 -0.6815199724
C 1.2979491043 -1.4052686364 0.7635809881 2.9945154056 -3.4984456151 2.7913710851
C 2.6468962134 -1.0378224026 0.7849734815 -2.1732296414 -2.9209520084 1.4128106033
N 2.7054219452 0.1189980159 0.0701023431 1.6400557848 0.5508083103 0.3532985806
C 3.9499146570 0.8337184561 -0.1458904291 1.4802313431 2.6437073575 -2.7188957534
C 1.4713986003 0.4402192690 -0.3618979619 -0.6803751000 2.6706807774 -1.8001744566
H -2.6322731393 1.4863878683 -0.8384358670 -0.2517417564 0.3417656991 -0.6235404483
H -3.0749395672 -0.1442324191 -1.5543915236 -0.3723932694 0.9921290474 0.1793680421
H -4.3921736590 0.8881569508 -0.8001723505 0.6667382707 0.2751503179 -0.7729396384
H -3.3237591464 -1.1084139273 0.5366422904 -0.2167249561 0.2600159243 0.1553020921
H -3.7287151854 0.4247668512 1.3628674278 -0.0219245218 0.1364241583 0.1328649185
H -1.3465375987 1.2018276843 0.9898613029 0.0158864119 -0.2218409991 -0.2265162719
H -1.4794509942 -0.3009493912 1.9177945299 0.6346163992 -0.3924396027 0.4764743044
H -1.0798709544 -0.0823855232 -1.1237928263 0.5110926559 0.0007195119 0.1613183438
H -1.1131698841 -1.6316581002 -0.2375991922 0.0380301924 -0.4157557016 0.0917228675
H 0.8695070042 -2.2966473106 1.2428424608 -0.2243543532 0.2273803258 -0.1983490880
H 3.4667738722 -1.5632270375 1.2677555005 0.4541507619 0.1476622927 -0.0064908613
H 4.5063027327 0.3875419064 -1.0208627238 -0.1955320774 -0.0153218167 0.9112929475
H 4.5772277676 0.9255611947 0.7429916926 0.1271381189 -0.5414582279 0.5518259591
H 3.7276314065 1.8880677490 -0.4778482625 -0.1501624039 -0.7431825096 0.3025291826
H 1.2211892357 1.3169760924 -0.9587051897 -1.0480275187 1.4045855190 -0.9103264131
B 0.0151986217 2.9064885135 -2.6539285815 -0.1838140068 0.6955949472 -1.4346245436
F -0.3578081188 2.0073661501 -3.7322663391 0.4592356657 0.5999058134 1.1632351375
F -0.5425926961 4.2119202264 -2.9586509827 0.4002210678 -1.2945895866 0.6621732929
F 1.4612021369 3.0505376902 -2.6018606594 -1.2702327594 -0.7497979212 0.6028853263
F -0.5160735144 2.3769569173 -1.4078095309 1.0168420116 -0.1324041345 -0.4412361958
30
energy=-22756.6768873012 config_type=IL_pair name=BMIM-BF4 Properties=species:S:1:pos:R:3:forces:R:3
C 3.4856202305 0.5376526707 0.1241166331 2.4239790598 0.6784816428 -0.5410833761
C 2.9043218044 -0.6613932861 0.8447267300 0.7216759249 -0.4860421780 -0.6288903188
C 1.3987975846 -0.5755971813 0.9772349789 -0.3629272016 -0.6507355808 1.3359471874
C 0.7834784570 -0.5076666209 -0.4056096205 1.2864156400 0.8177345597 -1.1929074895
N -0.6742424331 -0.4242344456 -0.2927700450 2.4276286410 0.9326404711 -0.6831180329
C -1.5493279788 -1.4459107257 -0.2543461720 -2.3965054877 -1.8473405223 -0.5210385389
C -2.7879962770 -0.8654382961 -0.1444976681 -2.2658619253 -3.3136471142 0.4761969823
N -2.6736721749 0.4778855808 -0.1164120820 0.4411881789 0.6212038507 0.4480523747
C -3.7120016117 1.4868529712 -0.0100482222 -1.1774991524 2.0438727294 -1.3784569779
C -1.3496220001 0.7367663193 -0.2097688340 0.9128286972 3.5320601186 -0.0260566014
H 3.2894574613 1.4966866254 0.6282872998 -0.3184628696 -0.0166179234 -0.1899849662
H 3.2116529095 0.5596059069 -0.9477587161 -0.0820782398 0.2712620313 0.3838714670
H 4.5951743248 0.3915604690 0.1557778234 -0.5769194910 0.3661223924 -0.2108116500
H 3.3956931526 -0.7636018361 1.8165010503 -0.0181471619 -0.2341784832 0.3482283560
H 3.1484358293 -1.5337071568 0.2039258647 -0.0011312342 -0.1307652675 0.5692987216
H 1.0810840335 0.3486224208 1.4990550270 0.1092111230 -0.4670488193 0.4313941765
H 1.0829432825 -1.5059822210 1.4910966259 -0.4866130885 0.5199499314 0.1814719136
H 1.0627757628 -1.3717244854 -1.0300878947 -0.1774882628 -0.1652500990 -0.1248116162
H 1.1767889996 0.4299691466 -0.8864883372 -0.6932966753 -0.7006041896 -0.0193964220
H -1.3016257107 -2.4775081741 -0.3013573659 0.4380087878 -1.4309294137 -0.0975420923
H -3.7411264891 -1.3708304375 -0.0860541951 -0.7119543807 -0.6836971187 -0.3012190767
H -3.9953963167 1.7856141202 -1.0583436863 -0.0941193744 -0.1897849221 0.6505821776
H -3.2921337514 2.3841684982 0.4778455924 -0.0468612044 -0.0913231409 0.2069261224
H -4.6071138202 1.1362762102 0.5179045303 -0.0348706887 -0.3645576813 0.2141993222
H -0.9319652686 1.7319339271 -0.2142365219 0.4264777576 0.5170039547 -0.0761585203
B -3.4214237989 -2.6203697702 -2.6715719258 -1.2717476117 -0.7282865319 -0.7066416057
F -3.6631734575 -3.5675865106 -3.7445357145 0.4193943686 0.8446208242 1.1822418500
F -4.1776453150 -1.4238346428 -2.9536379477 0.9290628756 -0.7430084112 0.6068263859
F -2.0000450014 -2.3490915078 -2.6210254850 -0.2594861445 0.2668148299 0.5035214941
F -3.8354570009 -3.1864562527 -1.3971968822 0.4352757407 0.8303032983 -0.8446949628
30
energy=-22756.3315019696 config_type=IL_pair name=BMIM-BF4 Properties=species:S:1:pos:R:3:forces:R:3
C 2.0812052443 -0.7887037120 0.8439777341 -0.5547379622 -2.2988240220 2.5620749343
C 2.7017971417 0.0697250373 -0.2025085332 4.1491502377 0.0146416231 0.7612015607
C 1.8330958182 0.4420192794 -1.3413222524 2.0967479485 -0.9531565818 -3.9525577895
C 0.6241659121 1.2364149208 -1.1023897847 -0.1702041392 5.6060722184 -2.4145647675
N -0.4009286361 0.7433406649 -0.2524316029 -1.9777881087 -1.5897172031 0.0246945312
C -0.6303176590 0.8964489948 1.0726951777 1.0706198833 1.8434701904 4.3942945315
C -1.7551080945 0.2253030438 1.4606428387 1.3692891140 1.7918812705 3.5503221561
N -2.2336476762 -0.3581689645 0.3455057795 -1.4545968204 -0.9148466989 -0.8264975157
C -3.4211939675 -1.1789348183 0.2731807559 -2.4718562891 -1.8624616880 0.3255434328
C -1.4242013155 -0.0482775569 -0.6774297040 0.3645131100 -1.4699994864 -3.5584451231
H 1.8827077176 -0.2204464961 1.7815947561 -0.2367244769 -0.3720014233 -0.5032728659
H 1.1518965277 -1.2275039224 0.4515395874 -0.0646354211 -0.1411212479 0.4053102038
H 2.7556154676 -1.6485614975 1.1407016651 -0.6880619005 0.9142827390 -0.3345061101
H 3.1554307382 0.9579611274 0.2992105638 -0.2656375624 -0.1621766140 -0.5199002656
H 3.5808427830 -0.5175874040 -0.6115325843 -0.7997915109 0.8399345814 0.0836128813
H 1.5590538372 -0.4518639194 -1.9489420014 0.1686006459 0.1448377081 0.3870543523
H 2.4905609555 1.0698035678 -2.0303070862 -1.0270601352 -0.6180110188 0.5435776695
H 0.1171386508 1.4592596089 -2.0946418505 0.3443025572 -0.4523888264 0.4689064449
H 0.9255163064 2.2694356188 -0.7353370861 -0.3951696805 -0.9949022611 0.0900188419
H 0.0278789027 1.4902440673 1.7096591752 0.1085280318 0.1429979775 -0.0041411673
H -2.1799563838 0.1731588162 2.4723291178 -0.1789309863 -0.1528409675 -0.3393071060
H -4.2364055793 -0.7303123896 0.8858050213 0.3025253338 0.1730390174 -0.2718796094
H -3.7828245487 -1.2791980462 -0.7743691038 0.3525299322 0.0134748703 0.2469753796
H -3.2300343939 -2.1837841473 0.7332331761 0.0910665658 0.3495329760 -0.5152234876
H -1.5922877483 -0.3997718733 -1.6988637593 -0.8630565345 0.5561341481 -2.0870407670
B -2.1867048105 0.6599940971 -4.5384828131 0.3613767687 0.8021898762 -0.4670159819
F -2.5406689942 -0.3063769866 -5.5453043923 0.4373919435 0.9253093273 1.0504190004
F -2.8676899681 1.9230130535 -4.7574195580 0.7397744109 -1.4762434893 0.2483340438
F -0.7478890961 0.8871418263 -4.4748500742 -1.3210416363 -0.3016931353 0.0376110177
F -2.5866280479 0.1423137055 -3.2329323279 0.5138906075 -0.3656772036 0.6117879173
30
energy=-22744.6567693216 config_type=IL_pair name=BMIM-BF4 Properties=species:S:1:pos:R:3:forces:R:3
C 3.9890997494 -0.1685156377 -0.7958354316 2.1641617118 -0.3403344441 0.7051178359
C 2.9347374768 0.4355684916 0.1027190553 0.4743229932 0.0873935562 0.8889737112
C 1.5554135893 -0.1257236702 -0.1886788758 -0.2485060736 -0.5704623129 -0.9346431787
C 0.6133410862 0.5657469460 0.7788763429 1.4341697750 1.0937966796 0.7747814162
N -0.7505877047 0.1244659052 0.6142170104 -0.4585462469 0.4487835481 0.1462423491
C -1.3299367303 -0.9167871704 1.2599251897 -0.1526563262 -2.5922959485 3.1294910936
C -2.6397615653 -1.0495380639 0.8578176690 0.6787688171 -2.7223586533 1.8512181615
N -2.8561074863 -0.0701148777 -0.0479374947 2.7509890293 5.0243350787 6.6415657283
C -4.1143723575 0.1727889886 -0.7447296489 -14.7317458277 11.9454388539 9.3815838008
C -1.7163942709 0.6306683302 -0.1886327427 0.5014759442 2.7005985513 -1.6461677597
H 4.0309837666 -1.2627996125 -0.6211574389 -0.1129161314 0.2620880962 -0.5300796927
H 3.8596355522 0.0854467905 -1.8499866454 -0.0771270267 -0.1323375606 -0.3051121358
H 4.9666677828 0.2343996036 -0.4292411762 -0.3545712678 -0.2682421886 -0.6669279926
H 3.1870530867 0.1549579106 1.1446008169 0.0110928321 0.2844411076 -0.0902877700
H 2.9496080900 1.5317577172 0.0396445453 -0.0984793163 0.1949163856 -0.0799860241
H 1.5498308909 -1.2066925569 0.0590260193 -0.0845787376 0.1360817875 -0.6468427643
H 1.2524960291 0.0786987578 -1.2445858514 0.1009078329 -0.4417969175 0.5178741161
H 0.9334140707 0.2718954191 1.7984364461 -0.1982608237 0.4207158446 0.0782861150
H 0.7234790705 1.6657503448 0.6329743954 -0.5310648912 -0.2808298253 0.3188145278
H -0.8094786936 -1.5338637991 1.9811688793 0.3955229354 -0.1055976984 0.2608435329
H -3.3859684706 -1.7879119766 1.1842343136 -0.0065624701 0.3458556923 -0.0290354803
H -3.9339127866 0.3032785778 -1.8495615148 -7.0056299238 11.6405715893 -3.6382712451
H -4.6434285611 1.0743459153 -0.3556116322 0.3307281705 0.8366494329 3.2016831701
H -4.7960399484 -0.6877542717 -0.5713182744 -2.1747953941 0.7472603702 0.9183800735
H -1.5697716659 1.4799319384 -0.8429979671 -0.0582491281 0.4027709118 -0.3179539927
B -2.7436463616 -1.7919471186 -1.9411604112 3.5558756399 -6.7524877377 -2.7362651211
F -3.4614773945 -0.5834569828 -1.5975284784 15.8749963587 -24.5826424289 -18.3318326519
F -2.0279987694 -2.2923294942 -0.7782150544 -1.0661933210 0.1473669301 -1.3072202653
F -3.6807262198 -2.7856041096 -2.3959249899 1.0180934975 1.7792829521 0.7478398377
F -1.7437151850 -1.5213068236 -2.9646687477 -1.9273613458 0.2830751601 1.6911095680
30
energy=-22757.0162647271 config_type=IL_pair name=BMIM-BF4 Properties=species:S:1:pos:R:3:forces:R:3
C -3.2689809422 0.7135081268 0.6665171328 -0.1378903540 -1.0373772290 0.2919361990
C -1.9872543828 0.4266457860 -0.1268576142 -0.8203994751 0.1776624517 -0.6601538786
C -1.7508089396 -1.0745847445 0.0438707381 -1.7745891941 0.3315828586 0.1621964426
C -0.5165496733 -1.5336727649 -0.6801913366 -1.1996924139 -2.1056312209 -0.9687065006
N 0.6644084934 -0.8516486341 -0.1869451420 0.3142702335 -0.1563889014 -0.7650915038
C 1.4448171542 -1.2937333476 0.8411085671 2.0100484517 -0.9500574436 2.6086300628
C 2.4726831307 -0.4018370590 1.0356934788 0.0560745254 -2.1782849871 1.8684878357
N 2.3000779124 0.5772092258 0.1151828012 1.0927815064 1.5589718825 -0.6872512960
C 3.1450204408 1.7345511369 -0.0584944050 2.6171360240 2.3231599492 -0.7526896687
C 1.2100073348 0.3158840196 -0.6295890082 -2.1432220259 1.5296674558 -2.0437342907
H -3.0842302692 0.3076633980 1.6819867571 -0.3931828234 0.7499470701 -0.0056346647
H -3.5384677715 1.7742823589 0.6711417427 -0.2065743617 0.0827236122 0.1674117543
H -4.0592305536 0.0681850946 0.2249095492 -0.1806053380 0.7168641330 0.2097445667
H -1.1247152299 0.9739979588 0.2861170049 0.3697392727 0.7944367285 1.0270207369
H -2.1558160506 0.6928958842 -1.1781517335 0.1622228504 -0.1015504306 -0.3078487040
H -2.6196858152 -1.6401647182 -0.3498522335 0.2606092505 -0.0405453294 -0.0452920441
H -1.7093925661 -1.2889552671 1.1158104641 0.3534560119 -0.2223514439 0.2999273675
H -0.4121481748 -2.6147689530 -0.4454966605 0.5145375950 0.0937308222 -0.5775682241
H -0.6617564031 -1.3555795913 -1.7656826124 0.4911745745 -0.1440840160 0.0818038759
H 1.3250058553 -2.1858167512 1.4383001584 -0.6598148417 -0.6866351534 -0.0234343071
H 3.2856711550 -0.4226894612 1.7608215925 0.1592783115 0.1297515101 0.1072565584
H 3.9226807841 1.7849064987 0.7324859113 -0.5358308259 -0.2103207194 0.1565036512
H 3.7355418469 1.6842273272 -1.0158656207 -0.7306998584 -0.0906418255 0.3144776692
H 2.5647580331 2.6783628621 -0.0261755017 -0.1886777960 -0.1775265406 0.0943486548
H 0.8183646311 0.9311316146 -1.4549414421 0.1166603454 -0.0814478201 0.1668325697
B 0.0723158126 2.6167654821 2.3880759130 -0.0787535913 2.2007666837 1.1008578162
F -0.1845384056 1.5604659584 1.4464506666 0.4987643842 -0.4292749978 -0.1744002624
F -0.6022901613 3.8094123979 1.9085669176 0.5381785121 -1.0514335217 0.1271354038
F 1.4902420385 2.8960909228 2.4526976941 -1.1021983632 -0.6838217452 -0.3064630926
F -0.4434446209 2.3312660303 3.7060250077 0.5910701458 -0.3216990522 -1.4692874371
30
energy=-22757.0253606103 config_type=IL_pair name=BMIM-BF4 Properties=species:S:1:pos:R:3:forces:R:3
C 4.0191222908 0.3712375244 -0.0659637721 2.6774821255 1.5161672165 -0.1690436185
C 2.8549401787 -0.1731337687 0.7102150118 -0.0797623966 -1.6889293955 1.0753024109
C 1.5335289215 -0.0248119613 -0.0324578556 0.8786084974 -0.1549600160 -0.9961212437
C 0.4915719719 -0.6185648842 0.8878561112 1.3688398837 -1.1700735645 0.8054890916
N -0.8373185046 -0.5491418680 0.3102315836 -0.2654335413 1.5211053794 1.2951172291
C -1.4811852824 -1.4370456255 -0.4698268043 -2.0744147054 -2.8598111851 -2.5668392108
C -2.7235038317 -0.9225105863 -0.7658438115 -0.3771453200 -2.7967731915 -1.7533712049
N -2.8173394903 0.2922179740 -0.1500130997 0.5386034118 -0.4727710085 0.3822090469
C -3.9388541447 1.2148420586 -0.1685848945 -0.6042860320 2.3881440343 -0.3012988081
C -1.6525516650 0.5114517357 0.5083489815 -2.5528798438 -1.8148956065 -1.8901205559
H 4.7496276100 -0.4180273337 -0.3252718568 -0.2979267149 0.1495755777 -0.2246391692
H 4.5778850367 1.0852409132 0.5883116804 -0.2286024362 -0.2908003632 -0.5513477872
H 3.7382178798 0.9304474306 -0.9752199696 -0.0561722943 -0.2389286112 0.0906301765
H 2.7559462342 0.3221494133 1.6888516506 0.1143830486 -0.0018684671 0.0736321389
H 3.0432112188 -1.2698165729 0.8823120696 -0.3303042082 0.8280899983 0.1921931622
H 1.6180265560 -0.6119645768 -0.9677918343 -0.3914663586 0.2851145624 -0.0038263242
H 1.3625644469 1.0282406612 -0.2584517924 -0.3377336269 0.4288299422 -0.0976345411
H 0.5294924497 -0.1219453431 1.8728397668 -0.4326646280 0.2300505940 0.0144993736
H 0.7749112709 -1.6807750742 1.0178369529 -0.4255419510 -0.0759547312 0.2088486734
H -1.0850621348 -2.3854138536 -0.8010950501 0.4568767082 -0.5077152913 -0.0454546145
H -3.5257065417 -1.3536218952 -1.3712815326 -0.0164090389 -0.0137173475 -0.0089595956
H -3.7570075695 1.9289211111 -1.0220527268 -0.4858338105 -0.3417494905 0.5579298018
H -4.8852039169 0.6740554000 -0.3164140643 -0.1123913367 -0.0687810092 0.0884802779
H -3.9240726446 1.7993087655 0.7891212342 -0.2444245119 -0.3959617347 -0.5686721227
H -1.4212403398 1.4086603561 1.1023832076 0.1311867397 1.4471720592 0.5401845605
B -0.0214126340 3.1528628467 2.2239193955 1.8819039692 3.5308003531 1.5745381231
F -0.2703703930 4.3500361714 1.4239623779 0.0254225812 -2.2927578660 0.9008953892
F -0.7744637265 2.0177345137 1.6993661965 3.0861321154 3.6960275588 3.6777825823
F 1.3915084597 2.8440499116 2.2177467585 -1.9259941304 -0.2406747603 -0.4594190994
F -0.4279705669 3.3745358983 3.5921984686 0.0644629141 -0.5991692320 -1.8405909245
30
energy=-22756.7507285577 config_type=IL_pair name=BMIM-BF4 Properties=species:S:1:pos:R:3:forces:R:3
C -2.9895322045 -1.4467690842 0.4490356490 -0.4786263435 -1.0642569152 1.4998649297
C -1.9072197275 -0.3911820234 0.4897210566 1.7208107123 -0.4216058885 0.0572506515
C -1.9528026932 0.4978457004 -0.7349914291 -1.6845302401 -0.1130248961 -1.2129667224
C -0.8469622580 1.5086618381 -0.5919543765 -1.4476243756 2.9910458284 1.1347939062
N 0.4558240647 0.8863544563 -0.5039818143 -0.3762603770 0.7848602817 -1.7459511054
C 1.2046417958 0.6211782702 -1.6019386675 2.6008170808 -1.1210661646 -2.8750170089
C 2.3895608131 0.0351165141 -1.2047054716 -0.3559586184 0.3978831380 -2.8824150227
N 2.3423522281 -0.0488034829 0.1551041627 1.1809943676 0.3008448916 0.6359274220
C 3.3761414898 -0.5996309559 1.0079661708 2.8695836179 1.8524016601 1.1428946823
C 1.1658458984 0.4720312861 0.5438105378 -1.0080793474 -0.2125318843 4.9271304976
H -3.2453506667 -1.7222027994 -0.5863376708 -0.2461924483 -0.0060132306 0.2402518910
H -3.8472519270 -1.0602011866 1.0386669146 -0.1636769313 -0.4342285841 -0.7167795929
H -2.5968813639 -2.3352907581 0.9893426389 -0.4695448298 0.0840133785 -0.3599431400
H -1.9690150725 0.2519123467 1.3771518421 -0.1878286575 -0.1065827315 0.3086826544
H -0.8875473459 -0.8549483886 0.4957519754 -0.6901544038 -0.1337123327 0.2144194663
H -2.9245232664 1.0357483366 -0.7911203665 0.3264994028 -0.0009567584 0.0405657518
H -1.8748176958 -0.0864831219 -1.6755729347 0.2265075308 0.0962557061 0.2757731986
H -0.9926573963 2.0367083184 0.3850818702 0.0146684549 -0.0618164255 -0.4689714862
H -0.8774395432 2.2884476006 -1.3843672313 0.4809392068 -0.3139414890 -0.0184996322
H 0.9474588039 0.8212709158 -2.6228465015 -0.7244737267 0.4001544703 -0.7639698353
H 3.2155002473 -0.3031602160 -1.8283160894 0.2928652453 -0.1700850081 0.1018946897
H 3.6805594157 0.1143043681 1.8008908833 -0.4627427299 0.2631648081 -0.1481121946
H 4.3036704684 -0.7465303239 0.3908301032 -0.9391138477 -0.3219571362 0.2833394665
H 3.0256313467 -1.5356333600 1.4745333195 0.6576138734 -2.0045182126 -0.4635271353
H 0.8048145888 0.5612557495 1.5686212106 0.1661753817 -0.0497377446 0.3549603727
B 1.9951779346 -3.3338725430 1.0306189896 -2.1035848668 -2.6831308174 0.6032170216
F 1.7615605003 -4.3819168674 0.0723684032 0.4261235923 1.2335492078 0.5624654783
F 1.2533163248 -2.1519137669 0.6591319315 0.3646634221 -0.3123326960 0.0282726110
F 3.4069450953 -3.0631413484 1.1228979527 -0.7062977612 0.4363415920 0.3749685670
F 1.4990157707 -3.7789831502 2.3155538104 0.7257870972 0.6800810473 -1.1437995065
30
energy=-22753.5164063138 config_type=IL_pair name=BMIM-BF4 Properties=species:S:1:pos:R:3:forces:R:3
C 3.2885565387 0.1488589718 -0.9707868467 0.5780224997 -0.2976435009 -0.2874052232
C 1.9393833932 -0.4347706579 -0.5348699821 0.1849533082 0.2160915691 -1.5776431827
C 1.8625065165 -0.3448691142 0.9643207681 2.1643354285 0.4556888165 0.6394412269
C 0.5938955067 -0.8797911761 1.5401093036 1.0169805110 -2.4254803729 2.3401951826
N -0.6003793593 -0.2212006991 1.0894339007 1.0407923617 -0.1555068121 0.0240166279
C -1.1482516896 0.8432316299 1.6944993244 -2.3463295883 3.6621354618 1.8383985505
C -2.2847480680 1.2027342147 0.9810224512 1.0137820029 2.7359201228 3.4993537006
N -2.4126707291 0.3488380839 -0.0517404869 1.1714392979 1.3634299282 -1.7768666164
C -3.4811451263 0.3726026498 -1.0570498321 -1.3742253404 4.6429356531 -6.5043406340
C -1.3783241200 -0.5091568229 0.0323244008 1.9508024389 -1.1177001641 -3.9522727284
H 4.0953003256 -0.5808250110 -0.6981373447 -0.2618143997 0.9401006789 -0.2331945551
H 3.3892167932 1.1149892832 -0.4378620384 0.5939104987 -0.2194175973 -0.4394137538
H 3.2573883096 0.3025031167 -2.0663288729 0.4598933419 0.0894553967 0.2779576393
H 1.1747040359 0.1717169988 -1.0671122439 -0.2470253799 -0.6670434845 0.4232370019
H 1.9204113777 -1.5026822980 -0.8131839443 -0.5660416982 0.1659622633 -0.3491474864
H 2.1078642946 0.6704362942 1.3282950991 -0.3975845938 0.0082587313 -0.1164523430
H 2.6788041667 -0.9927931738 1.3496215027 -0.2195821602 0.1833747034 0.1169477039
H 0.7031270925 -0.8107462035 2.6521131799 -0.7510613886 0.1263949099 -0.4119603586
H 0.5340748523 -1.9622622641 1.3193610677 -0.3638559972 0.0089941265 -0.1892010266
H -0.7600854547 1.3254837874 2.5825554402 0.3130672757 -0.0466871681 0.3999511734
H -2.9532779259 2.0254868915 1.2122972220 -0.3932507715 0.1347374924 -0.2027567605
H -4.2410204075 -0.3927696767 -0.7290453181 -0.5161692311 1.4243039145 -2.5365729516
H -3.0922133389 0.0608768709 -2.0268362197 0.5975399929 0.7015404370 -0.5168567069
H -3.9593477888 1.3542084137 -1.0267294006 0.6962429315 0.8407847373 -0.5572910367
H -1.2337691952 -1.3101001095 -0.6812221503 0.1685336697 -0.5834524161 -0.2469608789
B -3.0938147336 -2.0199648680 0.8447050457 -1.4979063622 -3.4336245560 3.2215132119
F -3.8020861232 -0.9079255725 0.2260145928 -2.0434168858 -9.5251327142 9.4488403771
F -2.0793549415 -2.5526027341 -0.0475838732 -1.1168883655 -0.3764772862 0.1757690356
F -4.0547883486 -3.0489072533 1.1690131081 1.3518373096 1.4403924606 -0.7733312737
F -2.4310763870 -1.5903494704 2.0645030587 -1.2184204778 -0.3084363260 -1.7418647661
30
energy=-22755.9578725781 config_type=IL_pair name=BMIM-BF4 Properties=species:S:1:pos:R:3:forces:R:3
C 3.8719344241 0.8922384134 0.4088232751 -0.4475337661 2.6219454515 -0.4070301108
C 2.9590032903 -0.2771275097 0.1787653077 0.0700404804 -0.7475253099 -0.2162207836
C 1.5135360861 0.2114003179 0.3135976127 -0.1168311967 -0.2173514077 -0.5317933164
C 0.6346576746 -1.0190557148 0.0701472160 1.0957974016 -0.0047033747 0.4377136065
N -0.7684270835 -0.6361738823 0.1815423904 1.3950017020 -1.3132087819 -0.7123535875
C -1.5229941484 -0.6488561592 1.2980628093 -1.1700619057 -0.9694103102 1.5678075007
C -2.7820556233 -0.1993460641 0.8861075271 -1.5995937093 -1.2150954422 1.9634082612
N -2.7514789480 0.0646993008 -0.4328977428 -0.8633754714 0.3260750305 -0.9149359005
C -3.8816622591 0.5573476067 -1.2334715936 -0.6356238105 1.5389020713 0.0872226822
C -1.4998665354 -0.2065083491 -0.8723504508 1.0852086855 0.6083344005 -3.6766734774
H 3.4846701253 1.4592279068 1.2985245195 0.8709799212 -0.4655542685 -0.4497836124
H 3.7111830561 1.5768762062 -0.4692336013 0.6827347569 -0.3029375372 0.7341690472
H 4.9230456207 0.6232012627 0.5064951728 0.3914514131 0.0265470806 0.1039503739
H 3.1844587376 -1.0711924020 0.8943262654 -0.1836896050 -0.3787163422 0.3423094265
H 3.0813045759 -0.6982015323 -0.8295023650 0.2349936981 -0.0845595835 -0.1078983762
H 1.3288202677 0.6514073964 1.3084038293 -0.1540465077 0.1870698068 -0.1934345608
H 1.2641585087 0.8949647965 -0.5214664648 0.2613384878 0.4763947198 0.5829594056
H 0.8679000898 -1.3809992394 -0.9473007648 -0.3916099773 -0.4521910498 0.1260171764
H 0.8481443667 -1.7582944043 0.8526458631 -0.0581223485 -0.5753520760 -0.0878395685
H -1.2251985075 -0.9416849266 2.2969337865 0.5692342349 -0.9913069403 0.1235317877
H -3.6522903486 -0.0724955462 1.4899485216 -1.3506034057 -0.2290799994 0.3179816676
H -3.4970768420 0.8323472101 -2.2264201447 -0.1837445858 -0.1512443966 -0.2367373468
H -4.3156115955 1.4787373353 -0.7465061936 0.3316047027 -0.7275011918 -0.3255011025
H -4.6380955375 -0.2309977733 -1.2619390764 -0.4741634597 -0.2706324348 -0.3570325100
H -1.1380593949 -0.1015142496 -1.8858501233 0.1087696437 0.0645971473 -0.3564885332
B -1.8637903001 1.9542712397 3.2163497825 0.9837071105 3.5351032550 3.2151544227
F -1.9979725707 0.8771210874 2.2597795265 0.0336947627 2.3318876555 1.1903447474
F -2.5512799541 3.1585804535 2.7926523789 0.4772792677 -1.9934385144 0.0100777530
F -0.4592305259 2.2622448022 3.3361690590 -1.1691919133 -0.6665330934 -0.5025574014
F -2.3469279540 1.5259701227 4.5067578059 0.1979917188 0.0398425083 -1.7392350484
30
energy=-22752.9975433037 config_type=IL_pair name=BMIM-BF4 Properties=species:S:1:pos:R:3:forces:R:3
C -3.4042119904 0.9166236736 -0.0125467799 -1.1824531922 1.6139487623 -1.3056437540
C -3.0386025458 -0.4898453230 -0.4244747292 -1.1104574620 -1.0013214736 -0.5376576980
C -1.5354498190 -0.6290066701 -0.6533648666 0.2406521559 -1.3147766133 -0.9381476931
C -0.7703984862 -0.3010435144 0.6093600593 2.9813060390 7.9823001399 -2.6938566713
N 0.6512122329 -0.4079599230 0.4768821130 0.1131404514 2.6219676241 -1.0748406212
C 1.4630551315 -1.4700009880 0.6850683748 6.1825119634 1.1302281304 -2.6967125845
C 2.7553731037 -1.0445904909 0.4163609568 -0.3222338719 -3.6368713250 1.0792483709
N 2.7108174432 0.2486425775 0.0546942393 1.5641214821 2.2411188501 -0.8302164090
C 3.8132744545 1.1325434773 -0.3223111242 1.5760909357 1.5895311026 -0.5769844771
C 1.4308955572 0.6438780293 0.0892471551 -1.8036740146 2.3018175547 -0.4761444934
H -3.3882484553 0.9985384099 1.0786208049 0.0027186999 0.6384026335 0.0810118562
H -4.4186893020 1.1666243321 -0.4407762785 0.7371137477 -0.1028425072 0.9627412601
H -2.6964718024 1.6047693204 -0.5360100612 -0.3760361913 -0.0017159869 0.8741865804
H -3.3758804512 -1.2158518034 0.3416812998 0.1530479528 0.1082594647 -0.2628894904
H -3.5734667900 -0.7137547654 -1.3638049942 0.1622153790 -0.2537350785 -0.0090611136
H -1.2473427397 -0.0192279863 -1.5211233032 0.1594066405 0.2029686001 -0.2303254675
H -1.3866890350 -1.6953259647 -0.9183168903 0.3945971243 0.1928935020 -0.1705646014
H -1.0409880796 0.6906572850 1.0146762045 0.5852577265 0.3041620447 -0.7925015076
H -1.1332014578 -1.0314739877 1.3795774765 6.1874092521 6.9093341086 -0.7149719853
H 1.1317465126 -2.4596422070 1.0036712399 -0.0917921793 -0.2913213933 -0.7677719654
H 3.6440743006 -1.6546272114 0.4875479969 0.6904950185 0.0667162399 -0.1237685671
H 3.5499144329 1.7439478218 -1.2284632384 -0.0983973077 -0.2787412428 0.7666296760
H 4.7042630651 0.5431063585 -0.6030564834 -0.0944236752 -0.2188783272 0.2235351360
H 4.0782501452 1.7982134185 0.5408893997 -0.1320155528 -0.2202657351 -0.5439373086
H 1.0767645750 1.6448061317 -0.1540285714 -0.0911883018 0.1999534501 -0.0407735591
B -1.1475219986 -3.0042290354 1.7675013555 -1.3579068852 -4.6609603342 1.8772674998
F -1.4709562047 -3.3561895685 3.1387139909 0.7954832776 0.9129232711 -2.3224722739
F -1.7306054799 -1.7106699926 1.4941423187 -11.8231661625 -14.8810492733 6.0721267590
F 0.2918177807 -2.8704501712 1.6401455463 -5.0768364130 -4.3229052171 4.0934260995
F -1.6639307266 -4.0131398628 0.8765343399 1.0330978122 2.1938261930 1.0724932341
30
energy=-22756.4902169698 config_type=IL_pair name=BMIM-BF4 Properties=species:S:1:pos:R:3:forces:R:3
C -3.9918461987 0.1392510528 0.7423030805 -2.9669143288 0.2849696775 1.8600711794
C -2.9106172322 -0.3144260004 -0.1759365673 0.7355710351 -0.0184670688 -1.4759393998
C -1.5140767312 -0.0542309318 0.4086152758 -0.7053685275 0.2777516392 0.5763987046
C -0.5529099588 -0.5635077076 -0.6289267645 -1.7734756622 -1.7936268441 -1.3329973007
N 0.8295591576 -0.3964784849 -0.2394736028 -1.3735998364 0.0151014217 -1.1601333881
C 1.5543170705 -1.3132974856 0.4495049421 0.5837329094 -2.8472365461 1.6180832174
C 2.7965128898 -0.7917208376 0.6201280697 0.8721456695 -4.3201168579 2.4282095807
N 2.7976800946 0.4121439917 0.0394320512 2.5026134751 2.8577392027 -0.0697118320
C 3.9225616170 1.3315930731 -0.0218572511 2.2028921795 1.1431200313 -0.1571065012
C 1.5994886663 0.6787988986 -0.4966995508 -1.7035577984 2.0383267516 -1.3356032382
H -4.7954832315 -0.6256749452 0.7347666344 0.0503188318 0.2511726373 0.1645807962
H -4.4877848090 1.0823020440 0.4073628140 0.6737757122 -0.3269139020 0.3937639575
H -3.6589534416 0.2342898353 1.8041785645 -0.1009720465 0.1937367859 -0.6995491318
H -3.0259327532 0.2309309884 -1.1307215490 0.2854182052 -0.0873831567 -0.0079806901
H -3.0178975990 -1.3794685731 -0.4259822723 0.0284494916 -0.2454544624 0.1123598191
H -1.3945778582 -0.5817043314 1.3749306251 0.0610882117 0.0971446105 -0.2349458465
H -1.3583195224 1.0224093988 0.5743812697 -0.0892449807 0.3970931372 0.7123349250
H -0.7910427360 -0.0895307664 -1.6005592273 0.5970915234 0.1704176955 0.0071929072
H -0.7475987896 -1.6579773218 -0.7452472190 0.4651391687 0.3201232069 -0.1833236792
H 1.1685638842 -2.2841277350 0.7869361095 -0.1437513266 0.2134878047 -0.1481365751
H 3.6150455306 -1.3057438629 1.1465621373 0.1643362030 0.6694377660 -0.2402629782
H 4.3941762347 1.2219692862 -1.0237105268 -0.1245941496 0.4904554095 0.0925731494
H 3.5782512995 2.3672479112 0.1843458579 0.0455922113 -0.1852675669 -0.3087562427
H 4.7105857440 1.0732060390 0.7224427268 -0.5709985793 -0.1318864181 -0.0585455885
H 1.2802986728 1.5637464646 -1.0323802582 -0.1901323825 0.7475027470 -0.1064351383
B -1.1703126999 3.1500073554 1.3111266123 -1.3032221702 0.9888417478 0.8148769600
F 0.0402331881 2.8679109708 0.5625430981 -0.3946884298 -0.4078914079 -0.0858863305
F -1.4479072156 2.0822290501 2.2436753363 0.5537541895 0.5515707545 -1.0013810663
F -2.3328828156 3.3099478768 0.4567834831 1.4804558167 -0.3953105864 0.3879928256
F -0.9677536050 4.3829394150 2.0326438128 0.1261862659 -0.9483687646 -0.5684960685
30
energy=-22756.6096671641 config_type=IL_pair name=BMIM-BF4 Properties=species:S:1:pos:R:3:forces:R:3
C 3.7906279633 -0.9397787017 -0.5642023639 1.3535715399 -1.7926097549 -0.6912719247
C 3.0065912017 0.2914719355 -0.2070554658 -0.1178336488 1.3313847692 1.6260993242
C 1.5433900245 -0.1369237503 -0.0933910683 1.0288394652 -1.6500243245 -1.2261422100
C 0.6495839326 1.0093020644 0.2614912759 2.0903154970 2.3155492592 -1.6323117074
N -0.7018062528 0.5596115184 0.3554409779 -0.0387601111 0.1809209141 -0.6679592164
C -1.2804535364 0.1001026614 1.4808154124 -2.1084583782 0.0612739084 5.1614398806
C -2.5910376706 -0.2402735249 1.1828859191 0.0744081349 -1.0808980719 2.8670217345
N -2.7909568220 0.0192708305 -0.1285926254 -1.1624276754 0.0883000509 -0.4023811657
C -4.0450319763 -0.1975073267 -0.8563359053 -0.8608111037 0.1190824575 -0.9096512766
C -1.6414506036 0.5001182026 -0.6082820540 0.5856166577 1.5176836313 -5.1327037507
H 3.3119790655 -1.8441467410 -0.1275919171 0.2238346001 0.3636476326 -0.1821033056
H 3.7755589411 -1.0586290416 -1.6704372239 0.4189852460 -0.1851015965 0.4848773388
H 4.8290279361 -0.9212656187 -0.1627455296 -0.3326878969 0.1466066309 -0.5892548415
H 3.2815149039 0.6315843859 0.8176797264 0.2546804223 0.2472021126 -0.5564657670
H 3.1447536695 1.1189506410 -0.9295044647 0.0385286088 -0.1405040234 0.2060085998
H 1.5382130749 -0.9594060167 0.6309736697 -0.5225474647 0.0066722479 0.3647054581
H 1.2681328651 -0.5687803653 -1.0721017604 -0.4148964651 0.0124049879 0.1086967364
H 1.0171467326 1.5437589609 1.1489934632 -0.5973667706 0.0681287985 0.8055898995
H 0.7190068149 1.7399461041 -0.5798417486 -0.2691859142 -0.0867377238 0.3337363365
H -0.8671657475 -0.0142606708 2.4761641979 0.9275107408 -0.3028917815 0.1517627374
H -3.3607457609 -0.6389208646 1.8157343906 -0.5420329210 -0.3113505440 0.4986399609
H -3.8178090783 -0.9124873528 -1.6590080508 -0.2996274709 0.0957702309 -0.5543390482
H -4.7883032766 -0.6438436852 -0.1939215102 -0.1246850418 -0.2742187729 0.5311185276
H -4.4668379394 0.7664760456 -1.2117249270 0.2958311988 -0.2050090785 -0.2787051607
H -1.5239284615 0.7956303100 -1.6587104526 0.2497351508 0.0625521859 0.1341840239
B -0.8797157746 2.9169470573 3.3864217967 0.9696118215 1.2010846190 2.1992067070
F -1.2804878603 2.0669822601 2.2740287347 -0.1816408695 -0.2443726532 -0.5287874570
F -1.4906094543 4.2146054314 3.2233653165 0.3748273861 -1.6408916900 -0.0285697601
F 0.5658211762 3.0889971155 3.3905580780 -1.4739634253 -0.5550373885 -0.5318088651
F -1.2658601018 2.2731340988 4.6233172028 0.1773342416 0.6423217866 -1.5605493355
30
energy=-22729.2677870014 config_type=IL_pair name=BMIM-BF4 Properties=species:S:1:pos:R:3:forces:R:3
C -3.0363620821 -0.6264722681 0.2298368198 -2.5179382996 -1.7373692397 -1.0409214609
C -2.1405113119 0.3137734231 0.9618547752 1.0871205877 0.5948300147 2.4368246404
C -1.5817104230 1.4077631684 0.0562135786 -0.4133097821 1.4503238088 -0.4168347140
C -0.7756653728 0.8188151876 -1.0755539308 -18.7777319744 -25.3914714332 10.6805215328
N 0.3408867145 0.0473338724 -0.6247633464 -1.9937748878 1.3591929653 -1.8276606313
C 0.4557809446 -1.2572425496 -0.3271828402 0.7145148182 -5.1759524613 0.9455221231
C 1.7423826005 -1.5607590877 0.0723287629 -1.8842524839 -2.7172944580 -0.1504264574
N 2.4183193087 -0.3920678945 0.0099211827 3.1187696375 -0.4879853534 0.9728784406
C 3.8280114840 -0.1742936353 0.3348141976 1.6116643357 1.6600772599 0.5311567482
C 1.5689453668 0.5642651630 -0.4088089435 2.0540757531 4.7507039732 0.0459664086
H -3.3071991259 -0.2033342254 -0.7703055813 0.2572184581 -0.6522133649 0.4904716261
H -3.9900924201 -0.7367057606 0.7859605163 0.1761718574 0.0001219444 -0.2192184489
H -2.6467861759 -1.6670059207 0.1358873528 0.0568423068 0.6934988352 -0.3003514336
H -1.2712533556 -0.2080950796 1.3942780418 -0.1414802959 -0.1502658862 0.1724130693
H -2.6833757722 0.7787332625 1.8077601228 0.1194016673 -0.0363633309 -0.0862990882
H -0.9687135371 2.0973754150 0.6569976855 0.0839447675 0.1525568084 0.1894512911
H -2.4475378698 1.9889490838 -0.3193908197 0.1617333907 0.0763730433 -0.1347296387
H -1.3913104988 0.2356621915 -1.7737261357 -0.7216303643 -1.7517051931 1.1018372015
H -0.4244840713 1.7074366618 -1.6716685893 -98.7256239316 -29.3169376910 -41.5772938924
H -0.3247631055 -1.9712496744 -0.3854870518 -1.3638196308 -0.7029374904 -0.2775589392
H 2.1390287059 -2.5391955318 0.3769040415 0.1874374341 0.3872172061 -0.0486931203
H 3.9304276661 0.2033631508 1.3834307503 0.0539473392 -0.5470741462 -0.2170010649
H 4.2582750129 0.6420477214 -0.2997560478 -0.4823641405 -0.4143523550 0.0274320828
H 4.4447919492 -1.0680349208 0.1559868432 -0.2494762833 -0.3108920277 0.2162788681
H 1.8629153687 1.5989382473 -0.5438663807 0.2237678099 0.1606628552 -0.0364704091
B 0.5521138580 2.3357688309 -2.7670702762 5.1285437117 4.9094671217 -9.5919362357
F 0.3402752719 1.3431240982 -3.7910624773 -0.1783993515 0.8559032172 2.4063436538
F -0.1583836367 3.5490883935 -3.1475947554 0.6802691309 -2.1872177050 1.4371468572
F 1.9759301283 2.6258552792 -2.6972989578 -2.4705891300 -0.8272672133 0.9007236253
F 0.0778514474 1.8846216308 -1.4773532183 114.2069990998 55.3597633293 33.3804515861
30
energy=-22756.4060155154 config_type=IL_pair name=BMIM-BF4 Properties=species:S:1:pos:R:3:forces:R:3
C 3.3195613698 -0.6204184086 0.5260944008 2.3575541970 -1.5679108325 0.8312568332
C 3.0058701096 0.2576138230 -0.6513251350 0.7910099173 0.7761876963 -1.0703780039
C 1.5523928837 0.7049046750 -0.5318520527 0.6922087258 1.9282041436 -2.4393710653
C 0.6989940952 -0.5230524499 -0.5343462993 1.3344811744 -2.0457028603 0.0813149795
N -0.7132267547 -0.2203680060 -0.4246813379 1.7551075014 -0.7894776036 1.2081656421
C -1.5800533156 0.0018489467 -1.4238960188 -2.8627908862 0.7859274517 -2.9519829682
C -2.8208394178 0.2513337379 -0.8454338215 -0.1511998692 0.0966055916 -3.4516567752
N -2.6356634878 0.1656745833 0.4858772767 -1.1490371105 0.6386393151 2.7315115536
C -3.6312199454 0.3453931914 1.5467902409 -1.0173522632 -1.4283842133 0.6364737983
C -1.3502221038 -0.1229241631 0.7691927208 1.1507248859 -0.3388214305 1.5371044903
H 4.4386186606 -0.6830280695 0.6233237625 -0.9119572394 0.1260544387 0.4748307864
H 2.8449388471 -0.2512424593 1.4570700569 0.3727813861 -0.3420991770 -0.1630536632
H 3.0114819653 -1.6551912776 0.2676949476 -0.1312024775 0.3117086333 0.6792198146
H 3.6753825624 1.1464161685 -0.7176599600 -0.3131151155 -0.3639836306 0.1274808036
H 3.1572718302 -0.3482137915 -1.5678187403 -0.0948270256 0.4183553343 0.0053856635
H 1.3326222288 1.2518775367 -1.4829673067 -0.2459895645 0.3545750572 0.9115490358
H 1.4417416693 1.3307792476 0.3553152479 -0.3887903622 0.3012413611 0.2157779081
H 1.0299321890 -1.1717548377 0.3020419274 -0.7297706746 -0.0393105451 -0.0970319734
H 0.8861998672 -1.0808115799 -1.4706429185 -0.3261024323 -0.0890120258 -0.0427407705
H -1.3693883502 -0.0074264261 -2.4907711381 0.2289323505 -0.3344183862 -0.3977838569
H -3.7648202193 0.4731543350 -1.3418665984 -0.2871601154 -0.0566038042 0.0025143930
H -3.8324423447 -0.6628423840 1.9677300949 -0.2362177400 0.1192675860 -0.0199690396
H -4.5408507375 0.7152066924 1.0702411790 -0.4212013263 0.4688932161 0.1740705992
H -3.2461031918 0.9548224402 2.3671082691 0.0922333877 0.7144343087 0.0683219210
H -0.9101784096 -0.2517515246 1.7447812029 0.2226329440 -0.1615355869 0.5965875374
B -2.9548556562 -2.5872842208 -2.7789877371 -0.5488691980 -0.3069395610 0.1315784062
F -3.5780120585 -3.4875599861 -3.7185384635 0.8571342033 0.8466335440 0.8219704602
F -3.2014289110 -1.2131820731 -3.2049546724 0.4133052485 -0.4520066745 0.2172957395
F -1.5294064321 -2.7862522423 -2.6685718725 -1.2411178187 0.2589104985 0.0023306286
F -3.6107020701 -2.7396087425 -1.4885790676 0.8077285925 0.1721977541 -0.8220736031
30
energy=-22728.3389590189 config_type=IL_pair name=BMIM-BF4 Properties=species:S:1:pos:R:3:forces:R:3
C -4.0306990812 -0.6277008385 0.1068249426 -1.2915207234 0.9584682396 0.8531603260
C -2.9293647191 0.2052745202 -0.4959243765 0.3997502631 -0.1075171445 -1.0544679320
C -1.5454265441 -0.3037186372 -0.0819023471 -1.0206009993 -1.0861326488 -0.6083429978
C -0.5612522222 0.6256976208 -0.7599004040 0.0606989224 0.1911503628 0.1895080229
N 0.8147522832 0.2659939516 -0.4583600743 -10.0748255297 -1.4153698605 2.8367929653
C 1.6219662068 -0.5914369876 -1.1507469088 -12.1811220567 -15.8720765008 -4.1740614958
C 2.8518771091 -0.6327881992 -0.5044439987 0.5029396188 -11.2646430437 -1.1878141184
N 2.7560019729 0.1935691441 0.5521168734 2.1999443023 -11.4250269253 15.4802589191
C 3.8625583380 0.4075452228 1.4713506177 1.1266833739 -3.5882323834 15.6956968420
C 1.5302133961 0.7455046491 0.5947989087 -8.5257304185 -0.1317130606 6.9918826833
H -3.8355880874 -1.6842158898 -0.0853836769 -0.2786160174 -0.3619095928 0.0855999668
H -4.0573568224 -0.4029526533 1.1940641501 -0.3403756896 -0.5670429445 -0.3039861910
H -4.9724056526 -0.2829929298 -0.3704040063 -0.0043188379 -0.6275585760 0.4780103168
H -2.9753133862 1.2602094131 -0.2154186780 -0.5094504130 0.3798180647 0.0154103379
H -3.0299502178 0.1149255624 -1.5968328607 0.2707203551 0.3657218963 0.1634143206
H -1.4397501082 -0.3205984564 1.0008733023 0.1987406473 0.1500770362 0.5511843973
H -1.4323388241 -1.3406386616 -0.4574212305 0.2255012661 0.2117712308 0.1652307982
H -0.7086594284 1.6604455549 -0.3895182015 -0.0178822407 -0.0622844068 -0.2548317006
H -0.7135741763 0.5804182392 -1.8535581487 0.0529936434 0.1956646319 -0.0611374191
H 1.3416432681 -1.1362589119 -2.0433845390 -0.9667390204 -0.5026063075 -0.0779027161
H 3.6836739003 -1.2382825095 -0.8440138220 1.0834891491 -0.1494887250 0.3284405935
H 3.6168118869 1.1237040861 2.2640754091 -0.6598735407 -1.9198966637 2.0120143787
H 4.7073872370 0.8578259268 0.9009677558 0.3150389504 0.5469811446 6.4520430494
H 4.2431758399 -0.5649626605 1.8685849449 -0.5575956985 -0.1388225370 0.1636729950
H 1.2016178318 1.4491752037 1.3535563682 -1.4845606190 -0.9942506771 0.2999665245
B 3.4549307121 1.3429774459 -0.3650377964 6.5596357930 10.9014477655 -2.2465110816
F 3.8429401354 2.4712059711 -1.1821539476 -0.9521422787 -2.1632428117 1.1094870804
F 2.4008562107 0.5962724095 -1.0218460068 17.6859633868 22.4083732718 -23.8137642123
F 4.6321987484 0.5371716938 -0.1295612921 6.2414842231 0.4204114986 -17.9289407929
F 2.9309910315 1.8415848250 0.8892918771 1.9420540829 15.6383654182 -2.1476241875
30
energy=-22753.2364024726 config_type=IL_pair name=BMIM-BF4 Properties=species:S:1:pos:R:3:forces:R:3
C 3.9793853343 0.5482041047 0.0001504708 5.8896875406 0.4748842985 4.1521860816
C 2.8779670651 -0.2968322385 0.6014965434 1.2451781205 -0.4117836215 1.2088543518
C 1.5234504154 0.0234558629 0.0091872272 -1.0221858432 -1.5064990531 -1.1593357636
C 0.4946740345 -0.8582036885 0.6619079720 0.4435805735 -0.3184561660 2.3874821819
N -0.8486010012 -0.5952796279 0.1282108254 2.2968910060 -0.2171914217 2.0558604193
C -1.4390767603 -1.1916728220 -0.9257629102 -1.3678193737 -1.7507483489 -2.8984353318
C -2.6886205072 -0.6233020929 -1.0495627741 0.5237938544 -2.6310690615 -2.7473223774
N -2.8017824362 0.2883847906 -0.0707953374 -1.5968525577 2.4039665045 1.2311110912
C -3.9295764570 1.1603438437 0.2306054913 -1.3499504562 1.7492037588 0.0293606962
C -1.6677273879 0.3225184388 0.6745059652 0.2341286421 1.1471438572 1.4007168596
H 3.9450856878 1.5987398013 0.3434112094 -0.0463661915 -0.2790927241 -0.1516358277
H 3.9745323110 0.4578226286 -1.1159336574 1.8697419886 0.2383811523 2.4542859154
H 4.9332952189 0.0838165924 0.3346183135 -0.0848893985 0.5457126790 0.7332486396
H 2.8845876951 -0.1284471071 1.6910728254 -0.2725154199 -0.3083118887 0.1845593342
H 3.1758031650 -1.3457918494 0.4002018596 -0.6125468248 0.0213830307 0.2518334833
H 1.2587503794 1.0738090131 0.0893952874 -0.1369276448 0.5621547917 0.0888723109
H 1.5923487896 -0.2826892661 -1.0671440257 -0.2729654952 0.7106892100 0.7128731730
H 0.6992967165 -1.9237828138 0.5103129456 0.1813214593 -0.3686979238 -0.0396629538
H 0.5172271031 -0.6248095387 1.7575009340 -0.6558383631 -0.4807663484 -0.3613633841
H -0.9839892421 -1.9761314942 -1.5452536716 0.1549156253 0.1275292045 0.2143453632
H -3.4413469826 -0.8593464603 -1.7898332136 -0.5853323963 0.1327212634 -0.2311570263
H -3.5894769937 2.2251417747 0.3018208760 0.0038744812 -0.5298706985 0.0039550435
H -4.6920780999 1.1211952168 -0.5791001221 0.1900186437 -0.3342740446 0.4135071967
H -4.3218623074 0.8517459530 1.2129947301 -0.5204586296 0.0628634068 0.0264232208
H -1.4522657403 0.9511109788 1.5320705938 0.0072288022 0.2569675933 0.2943255545
B 3.3623457900 0.8571751978 -2.9030014029 0.0699393525 1.2239120039 -3.8902701235
F 3.1602755750 -0.2029067664 -3.8552620293 -0.0255183807 0.9396746546 1.1020079411
F 2.6330016457 2.0458886613 -3.2911479104 0.6930436066 -1.4074837963 0.6046803748
F 4.7697216519 1.1430812882 -2.7960340110 -1.4260402530 -0.3819850387 0.4260139077
F 2.8656816325 0.4216918025 -1.6115874492 -3.8234395281 0.3276011499 -8.5037831503
30
energy=-22754.1542069643 config_type=IL_pair name=BMIM-BF4 Properties=species:S:1:pos:R:3:forces:R:3
C 3.1954842191 1.2134601094 0.0887217284 0.3398001671 -1.6295411027 0.4456184252
C 1.9603560457 0.5027840155 -0.4834513707 0.6442483259 5.6850628838 4.5732133277
C 1.8428674520 -0.7790609401 0.2931334111 1.3245621624 0.8640578530 0.2965561052
C 0.6842972922 -1.6392473222 -0.1110976287 1.9431467394 -3.1879886357 -1.3180578769
N -0.5607278767 -0.9381566076 0.0740394890 -0.0912842167 -1.0857407312 0.6143694346
C -1.2612678450 -0.9890029209 1.2326037996 -2.3902406597 0.0616945626 3.5739845330
C -2.4071793483 -0.2252415655 1.1223589794 0.7505336791 -1.7437125095 3.2307167110
N -2.3896157821 0.2919119945 -0.1281763221 -0.0745774008 0.2479028186 -0.6944782864
C -3.4216561899 1.1548994551 -0.6420407814 -1.9291176777 0.8095965942 -2.6322412758
C -1.2587703481 -0.1550536207 -0.7457161144 -0.0524946083 1.5089698468 -3.6477958382
H 4.0484733681 0.5472506894 -0.2307939447 -0.2822231250 0.9871070309 0.6795213422
H 3.3436728037 2.2079573609 -0.3287034933 0.0478963341 0.4976074764 0.2163947725
H 3.0737149536 1.1630045504 1.1883145521 0.9353611471 0.8822116890 0.0126252822
H 2.1921231865 0.3567933806 -1.5520343989 -0.0906639434 0.5734275280 1.7482704329
H 1.0740061340 1.1516074538 -0.4214484977 -0.1029646017 -0.1749912162 0.5983701175
H 2.7722552863 -1.3520574030 0.1129301976 -0.1874745895 -0.1670244639 0.3776344654
H 1.7533672096 -0.5247633220 1.3614337554 0.0920216179 -0.4712366673 0.3371568413
H 0.7485953022 -2.5622013108 0.4993536996 -0.9678936076 0.0969343031 0.2114565160
H 0.8109152697 -1.9903221940 -1.1632782969 -0.2398436688 0.7473828236 0.0302476268
H -0.9880272376 -1.5343155774 2.1188527446 0.6467754569 -0.6057262691 0.4259784525
H -3.1669376864 -0.0767108022 1.8965535495 -0.1847406362 0.2398758140 -0.3084622013
H -3.5328177153 0.9897277603 -1.7530684278 0.1194484531 0.0317793746 0.8249054269
H -4.3901900875 0.8854700858 -0.1658539123 0.3654244856 0.3528001361 0.0412602843
H -3.1473203040 2.2091007549 -0.5119111405 -0.1180883512 0.4362698048 0.3772235277
H -0.9756181019 0.0921659756 -1.7507215768 0.3550365383 0.2656091713 -1.1128582696
B 2.3464432523 -0.0325815033 -3.5286952794 1.1687077811 0.6770088174 -4.0001096760
F 2.0401326915 -1.0487063810 -4.5175401324 0.0982549876 0.9967198769 1.3152134315
F 1.7003549961 1.2177074547 -3.8628686774 0.3347279016 -1.4414548307 0.6544732987
F 3.7658756376 0.1839396917 -3.4727448501 -1.3435112239 -0.3516226560 0.2892516390
F 1.8873082305 -0.4850131021 -2.2461799834 -1.1079156799 -5.1081133140 -7.1743002762
30
energy=-22756.1009625661 config_type=IL_pair name=BMIM-BF4 Properties=species:S:1:pos:R:3:forces:R:3
C -3.5990136069 -0.2638957522 0.2812548348 -1.9054438395 -0.2648653696 -0.6047202832
C -2.9066368796 0.9510939012 -0.3016295792 -0.9962186344 1.6298408220 0.0447103533
C -1.4900150074 0.5913728050 -0.6977946097 0.4649435669 1.3620477148 -1.6569329999
C -0.7666290893 0.1235661307 0.5540634491 -1.6853821945 1.4285910697 1.6360337033
N 0.6102798306 -0.2520906372 0.2991893752 -1.1931431957 0.8024636773 0.7186798701
C 0.9992228772 -1.4967593964 -0.0376995754 2.1044802837 -2.6329230056 -0.9701756086
C 2.3663890898 -1.4777626080 -0.1996048924 -1.4144713012 -2.9359257243 -0.5646161531
N 2.7873010436 -0.2086346558 0.0444493032 1.3134338491 0.4362815413 0.1463538784
C 4.1606448202 0.2618480709 -0.0131745919 1.1349883533 1.2519657789 -1.2166856973
C 1.7038176256 0.5384161961 0.3500628824 -0.1657298215 3.1893310998 0.7137274134
H -3.0080481447 -1.1659304358 0.0037177302 -1.0182812327 -0.3988186186 0.8716590084
H -3.7401000536 -0.1515450790 1.3719223990 0.2730062737 -0.5004861150 -0.2479652118
H -4.6187049306 -0.2906100204 -0.1770830133 0.5766737395 -0.5959553740 0.4698822203
H -3.4597252285 1.3691100131 -1.1725663862 0.3323706939 -0.2420960543 0.2341871994
H -2.8952977801 1.7431268522 0.4729702343 0.2292390624 0.1360304526 -0.3484462368
H -1.0429169889 1.5238404008 -1.0978321586 0.4951730635 -0.3425064068 0.0827104869
H -1.4747080289 -0.1496855699 -1.5085030942 -0.0280793657 -0.3120085717 0.0509803292
H -1.3112538889 -0.7098152433 1.0403494661 0.2830149866 -0.3266461511 -0.1407730037
H -0.8102684490 0.9894296584 1.2645986533 0.4914923946 -0.5469733674 -0.1235475464
H 0.3592457106 -2.3377138168 -0.1554919579 -1.3247275463 -1.1386607263 0.0939427626
H 2.9813642740 -2.3227893504 -0.4710107472 0.7131505782 -0.2308223688 -0.1225894171
H 4.8145243792 -0.6055767096 0.1168454076 0.4267740082 -0.1057563846 0.2647143485
H 4.2975056165 1.0442029317 0.7541097235 0.2958424978 -0.1461611788 0.0680367364
H 4.3340406549 0.7065200178 -1.0345374419 0.1321716175 -0.2016550809 0.6809671279
H 1.7089821542 1.5902822969 0.5941461418 0.0161801752 0.6046020695 0.1618468366
B -2.5377698499 -3.9665983857 1.5242297331 0.2339117014 0.2438325301 -0.0868106230
F -2.7302140678 -4.9667159703 0.5065268911 0.0265930144 0.6246812930 0.8361721973
F -3.1692111082 -2.7265955420 1.0994989395 0.5737930526 -1.0997503688 0.3732694546
F -1.1085216993 -3.7048553477 1.6277958712 -0.8687559392 -0.0930701883 -0.0502954583
F -3.0574334513 -4.3988996502 2.8000706041 0.4909493776 0.4134079215 -1.3139014555
30
energy=-22757.0003622416 config_type=IL_pair name=BMIM-BF4 Properties=species:S:1:pos:R:3:forces:R:3
C -3.6235765168 -0.0047548911 -0.4215542728 -2.4938159100 -1.1951191858 -0.0557591668
C -2.8922435455 0.7189820199 0.6712168274 -0.2680640857 0.9799170809 1.7641562902
C -1.4399060480 0.7928969750 0.3235777241 1.9130090752 2.3613968175 -0.3557991579
C -0.8395487055 -0.5881748345 0.1696082057 -0.8152472880 -0.6274194709 0.1256675193
N 0.5836201943 -0.4350263101 -0.1705041087 -1.9740234707 -0.8488122237 1.4081101981
C 1.0620457877 -0.3477303349 -1.4300748156 2.2714708683 -0.0084715030 -2.6420239201
C 2.4498700378 -0.2125075109 -1.3088982329 -2.4894953504 -1.3573253272 0.6313981109
N 2.7491726164 -0.2239452234 0.0160680100 0.5243039813 -0.5562709019 0.8200158350
C 4.1095869943 -0.1047671780 0.5639429003 0.2950185587 1.5870992376 2.0200723318
C 1.5968720072 -0.3610884298 0.7109835550 0.2076322088 0.1209387024 2.2323087979
H -3.5882380205 -1.0942424926 -0.1717291886 -0.2287765857 0.5541767495 -0.7300951455
H -4.6908391535 0.3397797825 -0.3509411298 0.6720211684 -0.6402289928 -0.6452893510
H -3.2049874569 0.1871592821 -1.4254079277 -0.2531575331 -0.0069045724 0.1738842972
H -3.2816005967 1.7472971431 0.8091309012 0.0393225725 -0.2412965639 0.0431095636
H -2.9786368476 0.1747299404 1.6375408417 -0.3432948268 0.3113769596 -0.2588745501
H -1.3113493332 1.3241229281 -0.6583386470 -0.0039144721 -0.1442693796 0.7808735543
H -0.8552086575 1.3472394967 1.1058512808 -0.3859763365 -0.2509960810 -0.5752260031
H -0.9563669338 -1.1452549631 1.1021734092 0.2336320447 -0.4439778389 0.4312866985
H -1.3577432656 -1.1379871646 -0.6348315867 0.3350999748 -0.1396315670 -0.0993400636
H 0.4759730680 -0.3778037787 -2.3447583690 -0.3801302026 -0.0914869475 0.0418750134
H 3.1616445245 -0.1156784880 -2.1256910525 0.7941598433 -0.0863437741 -2.2363856710
H 4.0332593298 -0.2605041847 1.6639488488 0.2384896423 -0.5911437791 -0.3952610145
H 4.7804301794 -0.7891912288 0.0434427856 0.3849053943 -0.3251470578 -0.0574217341
H 4.4504755520 0.9637588562 0.4504474901 0.0361559831 -0.6631149182 -0.8572186133
H 1.5672947897 -0.3973094109 1.7747965513 -0.4924115319 -0.0772658002 1.3483291345
B 3.7033067526 1.7450320458 -2.2684197860 2.0577088247 4.1444399804 -0.6964701672
F 4.0384183473 2.9140360558 -3.0625070148 -0.6828797325 -1.9106024634 0.8646627510
F 3.2814538240 0.6442937043 -3.1171206610 1.4907182133 1.0463445301 -2.3648543395
F 4.8844844232 1.3464069567 -1.5471311243 -1.4383290491 0.1111153472 -0.3299475849
F 2.5995117613 2.0862380746 -1.4041819984 0.7507731651 -1.0211815795 -0.3781593336
30
energy=-22756.7907409153 config_type=IL_pair name=BMIM-BF4 Properties=species:S:1:pos:R:3:forces:R:3
C -3.3339434831 -0.2443682687 -1.2953081822 -1.9040355596 0.2266242249 -1.5539879017
C -3.0748625469 0.3773240851 0.0541567297 -0.1804842413 -0.3038334847 1.0067921375
C -1.5895404316 0.6860594997 0.2148970368 -0.3181107790 1.7579773576 -0.6833512345
C -0.7820441004 -0.5735439764 0.1022936834 -2.8633463760 -2.2452597014 -1.0197591576
N 0.6443261354 -0.3686073920 0.2438224294 -1.4866439038 -0.5652266476 -0.4674974725
C 1.3694960139 -0.4018822138 1.3914766241 1.9271327102 0.0174619618 2.5048653445
C 2.6837487492 -0.1526963046 1.0497779919 -0.4028568945 -0.4194763766 3.1609960195
N 2.7079613711 0.0236122777 -0.3001184411 1.4983323865 0.0900708821 -0.7339958141
C 3.8886138035 0.3099067593 -1.0956313951 1.4685399455 0.7559020187 -0.3020150754
C 1.4577534586 -0.1085294448 -0.7958423337 -0.2587001853 0.3472271680 -2.4967234021
H -4.4296327329 -0.0794897283 -1.5062175304 1.0160398592 -0.6765185851 -0.3199460406
H -2.7418864551 0.2671674668 -2.0736200429 -0.2183175355 -0.1079106601 -0.1042029972
H -3.0818842088 -1.3151130572 -1.3011237389 -0.2749993542 -0.0080131745 -0.1772613849
H -3.6927643755 1.2795791025 0.2291880728 0.3395716514 -0.0872602803 -0.0750424294
H -3.3667668916 -0.3578027193 0.8259786308 -0.0708724247 0.3083114856 0.2063503471
H -1.4614535215 1.1000410144 1.2184910019 0.8676719319 1.1269586562 2.1619198893
H -1.2581796758 1.3912272558 -0.5754936290 -0.0951490801 -0.0429143011 0.3285477528
H -1.0175331607 -1.0272977619 -0.8934367917 0.8917993712 -0.0080044368 0.3384238801
H -1.1588372781 -1.3064713140 0.8455334124 0.5494161367 0.0876018965 0.2072837124
H 0.9770257836 -0.5906710524 2.3886534534 -0.5428242301 -0.0223997388 0.2040281576
H 3.5360776298 -0.1068381493 1.7338706881 0.2575125330 0.0783698148 -0.3278539258
H 3.9576112189 1.4031915114 -1.2038829887 0.0955940869 0.2961591597 -0.4383696456
H 3.7687899715 -0.1858675996 -2.0678050071 0.3873045983 -0.0638271759 -0.2481436754
H 4.7911198186 -0.0056565305 -0.5316077236 -0.2124052447 -0.3060681808 -0.3739204868
H 1.2068049081 -0.0132734599 -1.8479750481 -0.3206976319 -0.0254225069 -0.3147504237
B -2.2820952610 1.5283678515 3.5143244793 -0.7127056467 -0.0178165908 0.5070501779
F -2.4762181497 2.8268672383 4.1059429130 0.2908698593 -1.2773623164 -0.4222011583
F -2.1436424965 0.4779986085 4.4908164941 -0.0965891703 1.0007552922 -0.6811659272
F -1.0649246965 1.5466529050 2.7167461939 -0.7490243607 -0.1850412444 -0.5318466187
F -3.4276358286 1.2274311081 2.6725759013 1.1191749759 0.2597709535 0.6504778466
30
energy=-22756.3439290417 config_type=IL_pair name=BMIM-BF4 Properties=species:S:1:pos:R:3:forces:R:3
C -3.4122339499 0.7762287877 0.1298263910 -2.6717998124 1.9923153122 -0.1595683968
C -3.0233106153 -0.6777527936 0.2146071916 -0.1944222458 -1.5954387175 -1.4361491645
C -1.5274916690 -0.8259671187 0.5143898571 -0.9769459143 -2.4078503102 1.0214423278
C -0.7986987168 -0.1572555440 -0.6134651452 -1.2724420799 1.8851774332 -0.5625250307
N 0.6474423263 -0.2142677642 -0.4719631481 -1.0000916219 1.1602283938 -0.3035939103
C 1.4615776971 -1.1839136105 -0.9395027324 3.2102313999 -1.7836297547 -0.4877360133
C 2.7593902693 -0.8197673718 -0.5701134594 -0.9603844585 -4.7657283145 -2.8046405830
N 2.7130095880 0.3372082860 0.0995476639 1.0476494591 1.3546821869 0.9037602258
C 3.8758905194 1.0360601393 0.6479601554 0.5554022519 2.4938553759 0.0103704146
C 1.4120584668 0.7177983317 0.1644465237 -1.4797336317 2.3337644588 2.2187357121
H -2.6699314913 1.4521710457 0.5835538509 -0.3588419636 0.0155594086 0.2634900239
H -4.4183590325 0.8782886553 0.6237477533 0.9963781614 0.4545935781 -0.0980096872
H -3.6004870722 1.1223323907 -0.9191170949 0.4700625078 -0.3156406894 0.6083567727
H -3.1853526767 -1.0931957686 -0.8205435696 -0.2287626744 -0.3167897746 1.0945421349
H -3.6111582139 -1.2516541083 0.9669593034 0.1694460211 0.3042177640 -0.4459900099
H -1.3218277556 -1.9286537201 0.5054591178 0.3781647264 0.7967085339 0.4621944639
H -1.3439341926 -0.3773295868 1.4966947901 0.6687293433 -0.1102093819 0.2020013067
H -1.1321064040 -0.6251621686 -1.5612701506 0.4738228266 0.2366374906 -0.1376032423
H -1.0808029893 0.9307227427 -0.5853718288 0.3061581300 -0.6915096301 -0.5302766901
H 1.1610715930 -2.0677063762 -1.4916649151 -0.4082557370 -0.2680426283 -0.1500047840
H 3.5994420630 -1.4499616105 -0.8364210590 0.9327959552 0.2514846312 0.3356179176
H 4.5125301218 0.3876710246 1.2625348141 -0.0130653146 -0.3480744496 0.1888264121
H 4.4487278590 1.4942013870 -0.1932005225 0.0959493334 -0.4756499970 0.1828498378
H 3.4832748177 1.9046708451 1.2236933296 0.2443667870 -0.5041427839 0.2319038986
H 1.0512794574 1.6352339059 0.6563206205 -0.0020043246 -0.2561741853 -0.1372774413
B 1.7652409614 -2.4990499477 2.5994865099 0.8791547009 -0.6759672979 0.4731496708
F 1.4966121003 -3.5390845486 1.6301460156 0.1817468930 1.1556432165 0.7382619545
F 1.1093576971 -1.2625591775 2.1932813862 0.1774828073 -0.2530824365 -0.0816273700
F 3.1986313832 -2.2550819166 2.6930583715 -1.6667090162 -0.1922757662 -0.2315035060
F 1.2355942125 -2.8846829877 3.8994381307 0.4515022606 0.5206421961 -1.3706306560
30
energy=-22722.9161049747 config_type=IL_pair name=BMIM-BF4 Properties=species:S:1:pos:R:3:forces:R:3
C -3.2252440770 0.6825592789 -1.0022831124 10.7625599772 19.8640702501 3.0599307179
C -2.1573961359 -0.1085262330 -0.2532328064 19.7787542948 31.4017152936 23.8493738173
C -1.6491719492 0.6674847750 0.9345075830 1.2009323716 1.8693009928 2.3161630073
C -0.5848022029 -0.1908772799 1.6312911072 -1.2956704872 2.1653791548 2.6511040295
N 0.5068176020 -0.4749790973 0.7225369533 -0.7977175068 0.5077426085 2.2384525325
C 0.6753935885 -1.4972728846 -0.1325311628 1.5165512884 -2.7684845227 -3.1498054769
C 1.8932466726 -1.3249612407 -0.7888914910 -2.9632868905 -3.6494221994 -0.8372837824
N 2.4430874154 -0.1992768876 -0.3197405716 3.0462461341 1.1174405503 -1.1298665045
C 3.7230034332 0.4009537011 -0.7033295301 0.4621108187 1.1096666315 -0.2029244840
C 1.6072196474 0.3207550457 0.5970261816 0.1228567398 3.8051849012 2.5630250235
H -3.3359315993 0.3178645611 -2.0399967653 3.2420760644 2.0809176750 -0.9045812464
H -2.9593024808 1.7555342309 -1.0581830245 -0.6806167020 0.7022554591 -0.2785813505
H -4.2111835929 0.5507541821 -0.4967837808 3.7608139305 4.6948781612 6.1759585156
H -1.3230486674 -0.3155542200 -0.9583637574 6.2716296835 2.7597197683 1.1297048349
H -2.5911356827 -1.0623993272 0.1103230339 1.8491600509 -4.7656054797 18.3190332027
H -1.2015575308 1.6328713074 0.6269287590 0.0162634369 0.0639651518 0.5214408032
H -2.5075170322 0.8005356738 1.6207962344 0.3369997638 0.4488917100 -0.0045300682
H -1.0365342887 -1.0823975844 2.0841295869 0.1959995321 -0.6270390133 -0.3332769168
H -0.2082190457 0.4251415360 2.4846715859 0.5794515937 -0.6034175023 -0.1391656221
H -0.0293379902 -2.2846516503 -0.2550294727 -0.8409207141 -0.9910387506 -0.0414486675
H 2.3228154921 -1.9672371332 -1.5340033906 0.5410013290 -0.3444325141 -0.6012865466
H 4.1976384739 -0.2036609168 -1.4950017534 0.1425899096 -0.1250432683 0.2828148936
H 3.5102280806 1.4115405812 -1.1187188477 0.2216800404 -0.0946792602 0.0470189771
H 4.3519017457 0.5272847097 0.2078046661 0.1331244381 -0.2120297865 -0.4126841883
H 1.7890301244 1.2185148720 1.1360737754 0.1520638578 0.9483253642 0.6578327093
B -4.0501521865 -1.0687100742 -0.9678288413 -8.0303169052 -8.1036051790 -0.2854940502
F -4.3958296079 -2.0918161726 -1.9470305795 1.5815464201 2.5025522440 2.0997263017
F -4.7346727089 0.1662774941 -1.3313864482 -20.4438413217 -8.3913165441 -8.4640615037
F -2.6175997043 -0.8279579669 -0.9260922523 -22.1236083880 -46.0246928294 -46.7734302374
F -4.5173529344 -1.4486204739 0.3555324491 1.2676009875 0.6487970298 -2.3591375771
30
energy=-22756.3045036891 config_type=IL_pair name=BMIM-BF4 Properties=species:S:1:pos:R:3:forces:R:3
C 3.0353109973 -0.9200638286 1.0803034801 0.3644402943 -1.3690252444 -0.5576332662
C 1.8404588562 -0.0175132958 0.8580028722 -0.3441715477 -0.4788985316 0.3280495149
C 1.9393652101 0.4492830001 -0.5855420925 0.8317353671 0.3985004503 0.9877224861
C 0.7587747303 1.3547489846 -0.8419530558 1.8644607688 2.6908686916 -0.3531699413
N -0.5010849868 0.6701279760 -0.6418328775 0.7808617371 0.5798464456 -1.4981195192
C -1.1246489012 0.0134697282 -1.6569101223 -2.9119273510 -1.9176825951 -0.5363005093
C -2.2803334745 -0.5101428102 -1.1073188615 -0.3274731909 -1.3933553202 -4.1973016066
N -2.3522509453 -0.1777151552 0.2065158833 -0.4545409677 0.2051819798 0.0775466798
C -3.3850598767 -0.5187117475 1.1428717838 -1.7489963196 -0.5773113139 2.5108132875
C -1.2474220437 0.5478801477 0.4699696369 1.4015111891 1.8628162786 3.4726633426
H 3.9747977813 -0.3503588119 1.0438524029 0.0749630092 -0.1824127973 0.4827684784
H 2.8757092836 -1.5114087228 1.9832333469 0.6644234244 -0.0304180923 0.5570960682
H 3.0485980781 -1.6373059463 0.2236580913 0.2250906226 0.2792848531 0.5499454322
H 0.9242252837 -0.6496517142 0.9362098010 0.3625154068 0.5427385713 0.3747414034
H 1.8027907298 0.8329289028 1.5622704121 -0.1103479186 -0.1762012786 0.1013772776
H 2.9032910240 0.9638864478 -0.7703671136 -0.4470422166 0.2071878412 -0.0000840701
H 1.9420247995 -0.4476364483 -1.1968039866 -0.0635522673 -1.2047758584 -1.9731427960
H 0.8676685677 1.7595588476 -1.8608808301 -0.7957164266 -0.0101625459 -0.3424779340
H 0.7554674571 2.2125062362 -0.1403956176 0.1302945578 0.0234373403 -0.0170753002
H -0.8291398488 -0.1035742005 -2.6771553392 0.9579725173 0.1710631183 -1.0815057926
H -3.0205984697 -1.1026178820 -1.6564478806 -0.2056452900 -0.0136194034 0.3797585020
H -3.7683298492 0.3696999361 1.7095765177 0.3888794512 -0.2675666128 -0.4206661861
H -4.2405924860 -0.9755702353 0.6188983409 0.1167359668 -0.1347473665 -0.1110084994
H -2.9525710667 -1.2358906001 1.8801977189 -0.4028711406 0.0718088224 -0.1218697048
H -0.9664508502 0.9840711916 1.4191715357 -0.0447728400 0.1833817002 0.5594971474
B 2.6533116884 -1.3695533654 -3.8899106561 0.3558143841 0.2833650533 -0.2599720006
F 2.5062905306 -2.4684356025 -4.8129643446 -0.0942535698 0.8807701997 0.9168201963
F 1.9648541541 -0.1984193029 -4.3858763447 0.2475529793 -0.8390688386 0.3654708783
F 4.0572306798 -1.0508447776 -3.7797288163 -0.8583457175 -0.2282175294 -0.0016282875
F 2.1365980993 -1.6965581239 -2.5795731751 0.0345281673 0.4544991485 -0.1982187237
30
energy=-22756.2394764930 config_type=IL_pair name=BMIM-BF4 Properties=species:S:1:pos:R:3:forces:R:3
C 3.1614831931 0.8760895731 -1.0023961000 0.6014256347 -0.0789096416 -0.5967541091
C 1.8405994025 0.1019838536 -1.0551378991 -0.2172079273 1.3972187670 -0.7225224322
C 1.8669700833 -0.8170222901 0.1477906634 1.2464952028 -0.1180069403 0.3102315439
C 0.6092259603 -1.6549858072 0.2272976559 1.3679154796 -1.7984810514 -2.0669415576
N -0.5628851841 -0.8134010593 0.3378026006 0.6421390278 -1.2419138772 0.4357505860
C -1.0635997649 -0.4159015111 1.5209961961 -1.6003118416 1.3913862060 4.6038268939
C -2.1747249824 0.3709871368 1.2991115833 1.0045968196 -0.4737936240 3.1824533518
N -2.3284044201 0.4358239457 -0.0477592417 -1.2057441620 1.3547169966 -0.7225306479
C -3.4022524497 1.1818009982 -0.6967273015 -2.1125238797 -0.1305066454 -1.2383675738
C -1.3432695286 -0.2875929416 -0.6214854631 0.2345534242 -0.2082783759 -3.2403386790
H 3.9518238708 0.1206487518 -1.2035254253 0.1922984082 0.7434137666 0.3013434988
H 3.2018465744 1.6716728399 -1.7717914437 0.0952667053 -0.1504906235 0.3197270863
H 3.2381017578 1.3006228164 0.0158467462 0.4736850395 0.1388330792 -0.4090982390
H 1.0248897742 0.8484221417 -0.9420445310 0.0004836796 -0.4618741125 -0.2580598702
H 1.7608372803 -0.4531244167 -2.0095018764 -0.2626763828 0.0960910449 0.1755920753
H 2.0120356056 -0.1878516880 1.0355431852 -0.1361111152 -0.1393819121 0.3706296923
H 2.7408743997 -1.4939137953 0.0541697630 -0.2610660905 0.0140103386 0.2153924368
H 0.6891560855 -2.3631292231 1.0501719875 -0.5414486632 -0.4420059197 0.6050911284
H 0.5475998461 -2.2028773597 -0.7512440567 -0.2742425681 -0.0213994383 0.7187966649
H -0.6830992148 -0.6543207805 2.5250309568 0.3703989212 -0.2219211150 -0.4311749873
H -2.7935021700 0.8388776810 2.0630557809 -0.3418652663 0.3395064386 -0.1476831194
H -3.7174691408 2.0370027609 -0.0624110525 0.2661033377 -0.1679810464 -0.1518670692
H -4.2668415560 0.4657316908 -0.8149470731 0.3421058612 0.6790676127 0.0439276826
H -3.1087685478 1.5189203532 -1.7113770914 0.1771887317 0.0759249646 0.2840005146
H -1.2006268742 -0.4244636705 -1.6653412424 0.1347359374 -0.1564615906 -1.4389271410
B 0.3013439509 3.4788889478 2.1658396365 0.0571782448 0.7065158424 0.6134493251
F 0.0888477806 2.3869189966 1.2284000928 -0.0322612246 0.4801534973 0.5704525094
F -0.3308190648 4.6933480544 1.6785499396 0.4181705835 -1.3068571263 0.3128578199
F 1.7241840790 3.7254292028 2.2830594193 -1.2789548233 -0.4759184552 -0.0900125964
F -0.2758000345 3.1380261465 3.4632014890 0.6431455822 0.1871224156 -1.5455838402
30
energy=-22755.1674526079 config_type=IL_pair name=BMIM-BF4 Properties=species:S:1:pos:R:3:forces:R:3
C 3.5438823396 -0.5118862567 0.6770893733 1.1280013827 -2.2953825101 0.0444029529
C 2.9737265605 0.8010728727 0.2105330328 0.8687816403 1.7245111819 0.3849205567
C 1.4725334823 0.9072156819 0.5142949681 0.8055318706 1.6097270163 -0.3681952236
C 0.8425290604 -0.2488800002 -0.2352998792 1.1275050867 0.0765279396 -1.8127533431
N -0.5919350732 -0.3237580933 -0.0731011217 0.2760950600 1.1105943556 1.3048847788
C -1.2258037144 -1.0193893137 0.9108173235 -0.2007310994 -0.6690537896 2.8365760699
C -2.5852403932 -0.8473260669 0.7299442199 0.6733360138 -3.6099023544 3.7069274744
N -2.7709544733 -0.0640354742 -0.3408898018 0.0571257839 2.6610898782 1.1373207984
C -4.0640336696 0.3317450796 -0.8325267941 -3.5119826093 2.4012112532 -0.0982409525
C -1.5464493621 0.2536451232 -0.8287642905 1.3376488817 2.8158766265 -2.0585521591
H 2.8388585701 -1.0275336661 1.3653246804 0.7091292372 0.1600409844 -0.0283731729
H 4.5390390643 -0.3860480093 1.1475469099 -0.4286134155 -0.0695366087 0.1357280681
H 3.7140106045 -1.1739992616 -0.1975858154 -0.1633248747 -0.0372336719 0.4246279148
H 3.5190739011 1.6047503852 0.7631266604 -0.4212970541 -0.0327725078 -0.6894823584
H 3.1228831999 0.9050765805 -0.8822450260 0.1165209074 0.3443706159 0.3091519996
H 1.2920824579 0.9014835828 1.5890368635 -0.2397122528 -0.1123705447 0.4460225847
H 1.1779132622 1.8851275104 0.0815805223 -0.6092152332 -0.3044033508 0.3311399280
H 1.0885160370 -0.0784881710 -1.3124191299 -0.4263485487 -0.3845709868 0.2893385555
H 1.2865384261 -1.2109297584 0.0535000142 -0.1922667798 -0.2122768436 0.1362821098
H -0.7236016449 -1.5950590955 1.6827359891 0.2717729096 -0.0573284863 0.0121066419
H -3.3079549456 -1.3102469235 1.3971106703 -0.7778285515 0.5614612248 -0.0027658323
H -4.8168322692 -0.4635283716 -0.6464989134 0.3568507582 0.0573700071 -0.1912925588
H -3.9912595667 0.5635780581 -1.9077302171 -0.3368782917 0.3738450690 0.2048980734
H -4.4397638196 1.2324529550 -0.2796822978 0.3176345285 -0.0584207353 0.0645114826
H -1.3477580338 0.8749606327 -1.6924340191 -0.0236138364 0.2902660818 -0.4234625980
B -2.4010786258 -2.2396605033 -1.5790908898 1.6664692900 -2.2535725492 -1.8281396767
F -2.5751281024 -3.2564747939 -2.5855319665 -0.1959550965 1.3799357293 1.5062790342
F -3.0862487296 -1.0189997865 -1.9601654886 0.0733774919 -4.2178192658 -3.3106122419
F -0.9826522838 -1.9321985632 -1.4883383480 -1.7535033757 -1.3425689400 -1.3327117019
F -2.8453824239 -2.6856860106 -0.2707920519 -0.5139859870 0.0989389335 -1.1276377405
30
energy=-22757.1519693654 config_type=IL_pair name=BMIM-BF4 Properties=species:S:1:pos:R:3:forces:R:3
C -3.4992113662 0.3931689241 -0.6528555682 -1.7897272185 0.4939523724 -2.0320797775
C -2.9984842506 -0.0381231688 0.7025651407 -1.0755048052 -1.2238838504 1.5900883897
C -1.5083153930 0.1772501262 0.8672943369 -0.2401587504 2.4286347354 1.5109441533
C -0.7895979410 -0.6151579936 -0.1682727845 -1.0879371519 -0.1140035884 -2.3359078570
N 0.6637172743 -0.4529140108 -0.0671197397 -1.5110291853 -0.4454207136 -0.4300417929
C 1.4126564746 -1.2725821923 0.7032115566 3.4987614898 0.3562267629 -1.2535408831
C 2.7179250939 -0.8555727237 0.5783066004 -0.8992596355 -2.5149610427 1.9920598619
N 2.7105732439 0.2014957250 -0.2633742459 0.8305720696 1.1936729377 -0.9905748222
C 3.9236087514 0.9038759795 -0.6298134031 1.2256039056 0.9299706503 0.0072709391
C 1.4476113304 0.4544578086 -0.6644876948 -0.4090576145 2.1253957381 -1.6767643920
H -2.7556574632 0.9749695503 -1.2243927824 0.0062084843 -0.2416625713 0.0030110248
H -3.7908433694 -0.5223686093 -1.2295658256 0.0811962408 0.9785928737 -0.0114241935
H -4.3840206533 1.0822499185 -0.5628668254 0.5149122944 -0.8590485663 -0.1104362559
H -3.1671932485 -1.1404553785 0.8510470872 -0.2798905337 0.8882619067 0.0477769291
H -3.5668913569 0.5198405357 1.4751013549 0.4019412574 -0.3567875320 0.0988261667
H -1.2349282383 -0.1342682206 1.8816766372 0.4537100610 0.0791560188 0.2268210702
H -1.3014996162 1.2682106767 0.7116114219 0.1701854852 -0.6425539119 0.4113503786
H -1.0690554571 -1.6631163955 -0.0782949447 0.3928723671 -0.8778216611 0.1739094705
H -1.1536796466 -0.2869822955 -1.1732902159 0.6397396122 -0.1205317801 0.2939513456
H 1.0534897238 -2.1036227328 1.3071269766 -1.9256996104 -2.2347521464 2.8404584333
H 3.5655616372 -1.3113441800 1.0749465431 0.7100853064 0.1382009455 -0.0344331176
H 4.2492805678 1.4398803330 0.2850654614 0.4619337902 0.0571348546 -0.3367936723
H 3.6996715832 1.6056406692 -1.4342596149 0.1007007971 0.3770754900 -0.3879264396
H 4.6510451616 0.1401495775 -0.9527715575 0.3225321467 0.2378266464 -0.0002828337
H 1.1242371582 1.2353180773 -1.3365879145 -0.0749418369 0.5546252805 -0.4522104586
B 1.1380833670 -3.8652776356 2.7763351268 1.2932570350 -3.1689981538 2.0686081622
F 0.8977254247 -4.9625881394 1.8757374370 0.1406789226 1.5315645089 0.5229386912
F 0.5137705093 -2.6539097239 2.3012581489 -0.8872300091 -0.4608231389 0.3662139580
F 2.5691639607 -3.6383177572 2.9131684638 -1.8434722517 0.0918109976 -0.3562167774
F 0.5387184220 -4.1885396485 4.0665855367 0.7804043464 0.7986527253 -1.7440165806
30
energy=-22728.2762104236 config_type=IL_pair name=BMIM-BF4 Properties=species:S:1:pos:R:3:forces:R:3
C -3.3860449473 1.0806453678 0.5995208090 -0.4028495692 -0.4626088877 0.6568788901
C -2.2653128347 0.3880539190 -0.1901763157 -0.4046822061 2.6264913595 -1.0348693443
C -1.7470116636 -0.6772944763 0.7147432633 -1.4433728571 -1.0129239941 1.0251694089
C -0.6332173353 -1.5069577355 0.1709210459 -0.9045731043 -3.9480305711 -0.2745603635
N 0.5518395202 -0.7771511909 -0.1774927458 -0.6427947681 -0.7197389877 0.5902189743
C 0.8562848515 -0.2167612549 -1.3646197686 1.3725514669 1.8385542975 -3.2858401724
C 2.1049652822 0.3839644910 -1.2364644290 -1.8929528962 0.0695095349 -3.4377119688
N 2.5404889331 0.1788337176 0.0287689092 -1.8672491052 -1.7216638651 2.2136865763
C 3.8063489348 0.6373886637 0.6015332279 -21.1230704168 7.8348667705 -5.3087492274
C 1.5963976446 -0.5198475808 0.6515279578 -0.6610637249 -1.4008531895 3.2453859150
H -4.0468623436 0.2554990152 0.9663240718 -0.1897803446 1.1038515537 -0.1466099307
H -3.9085555704 1.8464390975 0.0099082084 -0.2753298683 -0.1545213161 0.0430582870
H -2.8921894527 1.5621920245 1.4624347117 -0.4986775293 0.0451282772 0.0415797157
H -2.6603600646 0.0004900419 -1.1404643578 0.2280445916 -0.1407222599 -0.1353922827
H -1.5302522844 1.2027560236 -0.3760060740 0.1643922003 -0.7529262845 -0.3844942245
H -2.6026055606 -1.3895048104 0.8749298298 0.6947892578 0.4802622505 0.4177649254
H -1.4350323696 -0.2305989038 1.6676596439 -0.1182460305 -0.0497054206 0.2756999633
H -0.9799648798 -2.1456603650 -0.6931306965 0.3214906578 0.8166706603 0.2989116568
H -0.3779832811 -2.2494432883 0.9558041048 0.3677228043 0.1159580638 -0.0762846963
H 0.2448969500 -0.2286543579 -2.2580811956 -0.5607502756 -0.2491746912 -0.1462265645
H 2.6410187807 0.9249441451 -2.0146961716 0.4440271310 0.1473415927 0.1305695626
H 4.4300127697 1.0702284937 -0.2322322163 -6.5304520687 -7.4351276325 -12.2631366525
H 3.6036354176 1.4302860141 1.3297214424 -7.1801687407 0.0033839994 2.2064326011
H 4.4087370177 -0.1905329768 1.0119300949 -20.5455353040 9.6942533317 13.0861527352
H 1.6807664854 -0.8293140742 1.6906490279 -0.1985162286 -0.1746803057 0.2214751179
B 5.2801693913 0.3847509335 1.1763221920 18.7819059048 6.9284157524 8.5659660552
F 5.0174986356 0.4131671537 2.6048991587 1.2895481163 0.1241487569 -0.9832436678
F 4.6705503076 -0.8088769221 0.6361658606 17.9906319093 -39.4300722597 -14.6512171321
F 6.7172102318 0.2833929225 0.9993978132 -2.8131657539 0.1707435861 -0.3230165404
F 4.7747047665 1.5996802996 0.5625682948 26.5898507739 25.6533094537 9.4388920547
30
energy=-22755.9874710715 config_type=IL_pair name=BMIM-BF4 Properties=species:S:1:pos:R:3:forces:R:3
C 3.7559404870 0.0417966280 -0.2218921476 3.7163069281 0.1909861091 2.4946223157
C 2.7163088346 -0.2739510499 -1.2345155813 0.7659961737 -1.2930216891 -2.7004303660
C 1.3150185369 -0.4173504501 -0.7100913396 -1.1082811670 -2.7198477478 -1.5246135614
C 0.7830574634 0.7997714934 -0.0396034960 1.5476639711 1.4344073724 1.0788619293
N -0.5656058895 0.5768132652 0.4336203319 0.2375245563 0.8008716102 -1.1746573792
C -0.9489043021 0.1034497089 1.6374468469 -0.9342090542 -1.3221608599 3.2603078359
C -2.3271305621 0.0495920543 1.6672755571 1.8787984919 -1.1405478594 2.8592010225
N -2.7288843250 0.5012518801 0.4570393080 -3.4988319311 0.2319765632 -0.1744281124
C -4.1065870807 0.6223629774 0.0305730839 -2.3975518532 0.0616794788 -1.2596440527
C -1.6864988750 0.8241568827 -0.3014698281 1.7049739432 1.0070071478 -2.7176994601
H 4.4978235346 0.8095857144 -0.5552744224 -0.6747218096 -0.3117618878 -0.0250633038
H 4.3974106157 -0.8573336271 0.0040349562 -0.7302160637 0.6558712018 -0.0877785042
H 3.3800720513 0.3927601548 0.7583509716 -0.1424038174 -0.0717563174 -0.3238314244
H 2.9772795961 -1.2658931968 -1.6986963355 -0.2564561334 0.7679905332 0.2026630157
H 2.7829453259 0.4497825983 -2.0651228219 -0.4230502566 0.1258995246 0.0634854934
H 0.6887653387 -0.6806125923 -1.5998862172 -0.0065204055 0.1594252644 0.6629981935
H 1.2514591199 -1.2786330115 -0.0146558198 0.0526612573 0.1689861855 -0.0909131369
H 0.7616560688 1.6482306452 -0.7344444207 0.1627910632 0.5137642589 0.0359688804
H 1.3970006777 0.9991746109 0.8739034244 -0.2095897463 0.4411795321 -0.5688575288
H -0.2676296948 -0.1788023554 2.4282490675 0.5495826767 -0.1096741948 0.2842087853
H -2.9454940759 -0.2874483001 2.4966898925 -0.5588830732 -0.0859815195 -0.0834963036
H -4.2882608848 1.5888027812 -0.4659271042 0.2137483652 0.2890550237 0.0398994106
H -4.3427944842 -0.1615872476 -0.7159904410 -0.0060875209 -0.2149202972 0.1914550422
H -4.8041164613 0.5396591713 0.8775644994 0.1825671115 -0.1787284295 0.2111289561
H -1.6928310152 1.2095681766 -1.3071779643 -0.1470286555 0.2495032611 -0.6640182496
B -2.9829941979 -4.0712311243 0.8634625921 -0.0676141670 -0.1364098591 0.4605550900
F -3.7079356058 -2.8165235288 0.8459728256 0.6606081667 -0.4937868475 -0.1801319726
F -2.8437520969 -4.4769146539 2.2515423647 -0.0463051906 0.2239385342 -1.0206287945
F -1.6546340498 -3.9167418595 0.3091297754 -1.2352462723 0.0133296963 0.3103705703
F -3.7561921258 -5.0497678262 0.1459916668 0.7466127477 0.7348756845 0.4440414820
30
energy=-22754.1814858899 config_type=IL_pair name=BMIM-BF4 Properties=species:S:1:pos:R:3:forces:R:3
C -3.4179081179 0.5664309653 0.7586333728 -1.9690072413 2.3487275706 1.0343354188
C -3.0131414016 -0.7133890461 0.0935072792 -0.6265006614 -1.9057554662 -1.8691370110
C -1.5172327894 -0.9713515442 0.2066183785 0.1796903540 -0.7953307985 1.2452919907
C -0.8275273015 0.1869309950 -0.4645531645 -3.1363865447 4.8852438675 8.5079528365
N 0.6030958779 0.0931515153 -0.4430410143 -0.0908241949 0.5430734353 0.7585208111
C 1.3376577316 -0.5045610224 -1.3995910331 3.8701557499 -2.3157152345 -2.7093697931
C 2.6723547307 -0.4111886315 -1.0610376467 -0.5727255453 -1.7069368398 -2.8477635047
N 2.7327178580 0.2530871464 0.1164206213 2.1964016077 0.3466938298 0.5466843622
C 3.9447379662 0.5873875737 0.8631472772 0.3802784434 2.0525803709 2.1020560307
C 1.4788976486 0.5474029027 0.4710193401 -1.9114959018 1.6708473932 2.8646396303
H -2.7812215487 0.8145162619 1.6385882468 -0.2134425181 -0.0097501155 -0.5206231268
H -3.4510959807 1.4238595859 0.0330618606 0.4603634668 -0.5787867079 0.6819209110
H -4.4651832388 0.4988453926 1.1414858389 0.5150220173 -0.0679685822 -0.1325302373
H -3.2242343337 -0.6681755975 -1.0050866681 -0.2611983958 -0.0199406366 0.6255237951
H -3.5573396544 -1.5991558651 0.4824184882 0.0299817370 0.3531876710 0.0976265068
H -1.2654737792 -0.9874372388 1.2879345784 0.2165603765 -0.4707509408 -0.1601623353
H -1.2931403515 -1.9384376238 -0.2590072291 0.3359896430 -0.2034314387 -0.0387648963
H -1.1064059092 1.1098362692 0.0904861413 0.6499392110 -0.3239093705 0.5427754093
H -1.1617201113 0.2527161531 -1.5177410577 -0.5173290815 0.9473877818 1.2396199588
H 0.9329508122 -0.9784247149 -2.2867306374 -0.4843852650 -0.1142540380 -0.1939078895
H 3.4898151636 -0.8059345660 -1.6493780639 0.7340377236 0.0201550106 0.1140742578
H 3.9760934788 0.0056784568 1.8055640178 0.3191096596 -0.3174533507 -0.2796654258
H 3.8827234156 1.6641220421 1.1828163895 -0.0385488116 -0.5790327666 -0.2824500262
H 4.8442379020 0.5014959582 0.2567183777 0.3462438649 -0.5738248006 -0.4215177234
H 1.1863419328 1.0725946322 1.3575664121 -0.1777141622 0.5586087671 0.9515922779
B -1.2257794919 0.1932200428 -3.4978668800 -1.7688150456 0.6830706569 -5.0214691042
F -1.8945169852 1.4522211234 -3.2182556072 1.3187632362 -1.7627441366 0.3029219836
F -0.6317206733 -0.3501682580 -2.2933295023 -0.0522214858 -3.6109985411 -9.8093697581
F -2.2178133113 -0.7549841736 -3.9877545573 1.5796769313 1.1613512142 0.9891385930
F -0.1595807099 0.3559956733 -4.4743887296 -1.3155314265 -0.2019135593 1.6782992071
30
energy=-22757.3630410211 config_type=IL_pair name=BMIM-BF4 Properties=species:S:1:pos:R:3:forces:R:3
C -3.6057250683 0.6120178078 0.0589279127 -0.4543649281 0.9479249264 -1.0532089566
C -2.9386377715 -0.5672026130 0.7345502670 -0.9958302291 0.0797323767 1.8943452410
C -1.4559183812 -0.3223712185 0.8293924944 0.8805789697 -0.3031185720 1.6686201523
C -0.7902847581 -0.1362277176 -0.5102036199 -0.3992083244 -1.0449008163 -1.4414571767
N 0.6322570496 0.0869474685 -0.2054170457 -2.0920552128 -0.2958316163 -1.3500355122
C 1.1082351033 1.3299879499 0.0004825913 1.6841853124 1.3338994904 -0.6842329627
C 2.4538396526 1.1935581062 0.2578575261 -1.1933185487 0.7016709639 0.1001640782
N 2.7265968023 -0.1315980306 0.1946154570 1.6947436882 -1.6810997363 0.0327860206
C 4.0440107322 -0.7445297244 0.4039413442 1.2806821372 0.4070657568 1.4906896930
C 1.6059134854 -0.8240382066 -0.0914314047 -0.3312071210 -2.6737713799 -0.2979860514
H -3.4102682459 0.5097475038 -1.0269526929 -0.6766638478 0.4121158588 0.1633937513
H -4.6823824349 0.6222811683 0.3004386253 0.0762393373 0.0509018297 -0.4886911741
H -3.1670687912 1.5733165657 0.3940417128 -0.1722142464 -0.2872790117 -0.0063195441
H -3.1963539042 -1.4977279902 0.2250453342 -0.0179284856 -0.4520159617 -0.0217248556
H -3.3107433349 -0.5732699675 1.7821344715 -0.0041349316 -0.6128891056 -0.3243334710
H -0.9181282579 -1.1396067336 1.3465778550 -0.2954751917 -0.0684956934 0.0291339306
H -1.2732301539 0.5886595607 1.4319648677 -0.1003618517 -0.0784315687 -0.1024106246
H -0.8433091107 -1.0635705656 -1.1267239830 -0.2123882917 0.3571795887 0.0275443158
H -1.2066222595 0.7285844551 -1.0682782955 0.4124988510 -0.1513830253 0.0273696323
H 0.5582169927 2.2714039611 -0.0259417097 -0.3870388852 2.1224635890 1.4166318266
H 3.1377515137 1.9869930581 0.4654151286 0.9169104701 3.0252257649 0.0959363190
H 3.8701292447 -1.6847955373 0.9434298711 0.2929613077 -0.4470487697 -0.1726870620
H 4.5860064947 -0.8711606803 -0.5445329300 0.0774221830 -0.1852423765 -0.1874635292
H 4.6124962738 -0.0564694734 1.0900559783 -0.2255835434 -0.5036586365 -0.6453815117
H 1.4632191275 -1.8909291465 -0.2148964527 0.2260771228 -0.5439494404 0.0168421374
B 1.7898533692 4.3220833592 0.7363497354 0.2709980081 2.8165510234 0.7565275594
F 0.7056645985 3.3953680098 1.0335176555 -0.0273467081 0.2847366778 -0.5832977190
F 2.1617594889 5.0262066006 1.9556038818 -0.5816202096 -1.2042071627 -1.4124685708
F 2.9551651230 3.6316457440 0.2498207252 -0.1286977042 -0.5257059400 0.1734877195
F 1.3303787097 5.2917202600 -0.2321850797 0.4803717356 -1.4879166732 0.8773907242
30
energy=-22756.5826929622 config_type=IL_pair name=BMIM-BF4 Properties=species:S:1:pos:R:3:forces:R:3
C -3.7987671546 0.9147188961 -0.8756697380 -0.3164171760 1.2039288719 0.8491098343
C -2.8907348029 -0.3090353389 -0.6875360896 -1.4697612745 -0.6413691182 -0.8742319115
C -1.5308366596 0.1316695787 -0.1998967778 0.1615255151 1.5831325175 -0.4694774450
C -0.5966809101 -1.0388535711 0.0016635890 -2.1962419105 -2.0187071172 1.7882346201
N 0.7007724719 -0.6019577211 0.4682931176 -0.0902630856 -0.4987596661 -1.5423013205
C 1.1407135413 -0.4335485133 1.7383384294 2.3941911314 1.1996549378 2.1701394155
C 2.4623277125 0.0008942271 1.6318090987 -1.2657526686 -0.3272004779 3.7522393854
N 2.7990146287 0.0881889621 0.3214842946 0.0248316144 0.2723965120 -0.8505436258
C 4.0485068142 0.4898402871 -0.2780817822 3.0123630052 -0.0753857369 -0.4981276497
C 1.7075414135 -0.2851035503 -0.3865091510 -0.3144260105 -0.1603482347 -3.3724828770
H -4.1162900216 1.2784926049 0.1367846736 0.2227679131 0.0694565670 -0.8346615096
H -4.7004980941 0.6516381705 -1.4323125438 -0.2838044474 -0.0807912836 -0.1952225803
H -3.2661090307 1.7287942369 -1.4183041479 -0.3362561480 -0.3262896731 0.2861070276
H -3.3689407569 -0.9542904774 0.0765352461 0.1977151904 -0.2924639328 -0.4511597114
H -2.8396100480 -0.8140949480 -1.6795821463 0.2291866328 -0.2688244557 0.6416061311
H -1.6884624048 0.6761243447 0.7463615333 0.3841404169 0.0550967699 0.0285549520
H -1.0967002038 0.8219907586 -0.9495067570 0.0159538435 0.0711734379 0.2592494517
H -0.5030822503 -1.6747241198 -0.8742707093 0.3301186824 -0.1995016519 -0.8216856402
H -1.0344161668 -1.6889989379 0.8119247432 0.4521449241 0.2647686150 -0.4078380563
H 0.5632642057 -0.6079012615 2.6337281921 -0.8812374768 -1.1286342060 1.0620690067
H 3.1290353390 0.2359383745 2.4508941808 0.5187765094 0.1520942978 0.2758432375
H 4.7389416262 0.8258968997 0.5236940326 -0.3241598264 0.2170251269 -0.1110502899
H 3.9266962526 1.2968984236 -1.0337753869 -0.1252764678 -0.2951341607 0.1639644632
H 4.5521625346 -0.4126780935 -0.7184886303 -0.4017082667 0.5537538248 -0.1727006289
H 1.6621519640 -0.3198992317 -1.4737375798 -0.1002640362 -0.0802364786 -0.2151984556
B 0.4597610992 -3.5781927658 3.9587212536 0.3648927223 -0.4908123126 0.4020683565
F 0.2080589689 -4.6044920567 2.9666815610 0.1575863906 1.1336107169 0.6818248223
F -0.1728444543 -2.3231493476 3.5957012324 0.5176502819 -0.4557177699 -0.1108808494
F 1.8945895658 -3.3687409387 4.0728149707 -1.3327845958 -0.0923293500 -0.1726068478
F -0.0627467434 -4.0529631686 5.2324716009 0.4663701264 0.6593240248 -1.2729190587
30
energy=-22756.5113621193 config_type=IL_pair name=BMIM-BF4 Properties=species:S:1:pos:R:3:forces:R:3
C 3.4250487473 0.7197465737 0.2010634168 0.7415555456 2.1927079553 0.5210857223
C 3.0165066221 -0.4835636653 -0.6217265818 1.1919648277 -1.4705822652 -0.5244931256
C 1.5060642254 -0.4540574622 -0.8877776047 1.1132933582 0.2486078352 -2.5120857781
C 0.7994904390 -0.4786528031 0.4241415510 1.5592378866 0.1381057192 2.2675954530
N -0.6414476681 -0.4538892058 0.2986000550 -0.4477781591 -0.1970184091 0.2266071469
C -1.5019322597 -1.5067564343 0.1964705036 -1.0943001808 -2.3754771316 -0.4072833061
C -2.7886214398 -1.0075406489 0.0965033589 0.2781392216 -5.5245072523 0.6585007853
N -2.7050176320 0.3195421993 0.1375760637 -1.2528755516 2.7280080472 -0.3195540450
C -3.8290309389 1.2538910154 0.0628924575 -0.9182010024 1.0354653085 -0.0007816174
C -1.4136916675 0.6492284013 0.2590362037 2.2240662670 4.3007035815 0.4475732171
H 3.5774128811 0.4784112330 1.2643290147 -0.0169744390 -0.0655221963 -0.0471716450
H 4.3736511476 1.1709864688 -0.1788860987 -0.6001192714 -0.1667342965 0.2759900659
H 2.6136745791 1.4830604178 0.1521580565 0.7818496323 -0.0280975868 0.0045130930
H 3.5751122316 -0.5135322803 -1.5902186972 -0.4212598748 -0.0079141375 0.4996110260
H 3.3024348844 -1.3837898306 -0.0405065992 -0.1886031186 -0.1126836735 -0.4605915995
H 1.2412865648 -1.2941949026 -1.5476336684 -0.3311137004 -0.0501653317 0.0471534381
H 1.3366803409 0.5012309565 -1.4243581028 -0.4923766872 -0.3149270650 0.0075798347
H 1.1608414708 -1.3540199567 1.0165787028 -0.7260439411 0.1458708831 -0.1077540622
H 1.0856089166 0.4275980212 0.9962458141 -0.1848193865 -0.2103513549 0.0694672919
H -1.1576443452 -2.5307242063 0.2005631220 0.1481440355 -0.5779896625 0.0532123705
H -3.6523537910 -1.6465778277 0.0046137797 -0.9813705383 0.1521755098 -0.0797786619
H -4.2837667278 1.1532373702 -0.9460000199 -0.2339199392 0.1100230180 0.3255158244
H -3.4719950716 2.2920818283 0.2270720280 0.0193628698 -0.3102980582 -0.1042060312
H -4.5110915800 0.9791530364 0.8889967414 -0.3111389250 0.0609480891 -0.0286914883
H -1.0572199291 1.6791317018 0.3164427920 0.1371116272 0.1210205117 0.0791048909
B -2.8386756190 -0.5962108293 3.6364607657 0.1329497137 1.1708013003 1.2632515431
F -3.1996226098 -1.5396874376 2.6084715785 0.3137815144 0.2199712603 -0.0679408772
F -3.5040662534 0.6590833303 3.3530688729 0.4590051596 -0.8550158736 -0.1980091566
F -1.4012851405 -0.3590877857 3.6688395173 -1.2683918342 -0.4162982930 -0.4643714318
F -3.2615580596 -1.0497991045 4.9425623291 0.3644600805 0.0554366709 -1.4335923365
30
energy=-22756.6974643665 config_type=IL_pair name=BMIM-BF4 Properties=species:S:1:pos:R:3:forces:R:3
C 3.7525509620 0.1036636133 -0.0749049886 3.0453299897 0.1099358253 -0.1574895504
C 2.8212706501 -1.0031225971 0.3471462982 0.7622303108 -0.2926243278 0.2322693363
C 1.4080078065 -0.5608689633 0.5697677568 -1.2273642768 -0.4702876170 2.3241761001
C 0.7800218566 0.0365712235 -0.6701113518 1.1262221550 -0.5205878865 -0.9368367093
N -0.5936231273 0.4248126656 -0.3155207333 1.5303840221 -1.6380811705 -1.7308199228
C -1.0155982714 1.6061982383 0.1717161227 -2.5788629598 2.0899086258 1.1664834254
C -2.3881750487 1.4525016152 0.3330624594 1.1354688830 5.0308981412 1.6798704827
N -2.7599183611 0.2180486755 -0.0481184635 -1.9695074004 -0.4181527480 0.3292083861
C -4.1168011616 -0.3305546053 -0.0299421003 -2.4176340218 0.0559848556 -1.6531591676
C -1.6502170150 -0.4104714305 -0.4466973509 0.8429755589 -3.3291194251 -1.3758968668
H 4.6623217759 -0.4172056515 -0.4956266139 -0.6756547794 0.7979432839 0.1589999399
H 4.1384019533 0.6709486813 0.8051295616 -0.5106887178 0.1791409098 -0.5995245826
H 3.3571327318 0.7651385986 -0.8543421173 0.0013930881 0.2100214350 0.0651023561
H 3.2024510510 -1.3939757967 1.3151224525 -0.1533799843 -0.3841137128 -0.5635507824
H 2.7962142321 -1.8098474171 -0.4277894073 -0.0057377928 -1.0030799962 0.8206631121
H 1.2852111425 0.0910061258 1.4553845164 0.1877588645 0.3360046616 -0.2581439570
H 0.8211543180 -1.4812062122 0.7798759242 -0.0183232317 -0.0022162478 -0.3638735104
H 1.3355021836 0.8730075071 -1.0926633466 -0.0648062992 0.8618860758 -0.0054363954
H 0.7532240635 -0.7795127602 -1.4242291614 -0.4376278457 -0.5353836508 0.2118214842
H -0.4045725413 2.4711826336 0.3836157197 0.5530162760 0.3570566104 0.0253736134
H -3.0282445978 2.2454378516 0.7162587462 -0.6366060300 -0.1838585313 0.0391658040
H -4.3296778159 -0.9333227656 0.8543280351 0.2514819243 -0.5808742151 0.4420558517
H -4.8759249558 0.4913330875 -0.0549059172 0.6911903609 -0.0743011071 0.1808134259
H -4.2917960580 -0.8952103846 -0.9864586028 0.3034874047 -0.0611502002 0.8317248557
H -1.6589157730 -1.4345519329 -0.8100974378 0.7550377762 -0.7471269036 -0.2192082173
B 1.0836775643 -3.8034959639 -0.3983820256 0.0636822609 -1.0841367976 0.3577227607
F 0.8181468531 -4.8475896427 -1.3470795799 0.2879039171 1.0255745557 0.8152168200
F 0.3660314148 -2.6038419415 -0.7924063020 0.0295019881 -0.1544127347 -0.0936218925
F 2.5089144007 -3.5279065267 -0.3192659183 -1.3174976217 -0.0017798887 -0.5463579337
F 0.5892456302 -4.1778607252 0.9138379026 0.4492039516 0.4231846112 -1.1780993981
30
energy=-22755.9399614316 config_type=IL_pair name=BMIM-BF4 Properties=species:S:1:pos:R:3:forces:R:3
C -3.4209706432 0.4965115928 -0.4681883529 -1.0960800717 1.5946048269 -0.6910190081
C -2.8823221187 -0.9126075933 -0.5049455060 -1.5561161246 -1.5304391383 0.4812673365
C -1.3784196920 -0.8850635576 -0.5648548408 0.0580641167 -0.7665372249 -0.4968706255
C -0.8958506980 -0.1630997875 0.6849766010 -0.6421409401 -1.6343735971 1.2264578173
N 0.5555810664 -0.1578155832 0.5890069137 -0.1489520388 2.1458523499 -0.1661163614
C 1.4426225835 -1.0617305672 1.0423320770 3.2216014382 -3.0323704687 1.5184250228
C 2.7329779936 -0.6328629915 0.7176376085 -1.2931157129 -3.5790409190 2.1043591091
N 2.5919951306 0.5391708516 0.0652118979 1.9558242587 0.9936163105 -0.7547269782
C 3.7207402494 1.3077957543 -0.4408534063 1.7235906732 1.3421713970 -0.3444079519
C 1.2842505076 0.8265278134 -0.0131973635 -2.1201044245 3.0501191174 -1.5575923771
H -4.2930811610 0.5561741936 -1.1528999769 0.0271603000 0.2612757767 0.6247878177
H -3.7047320648 0.7976664905 0.5720422215 0.2488888637 0.1611991180 -0.8602387293
H -2.6432981596 1.1483785961 -0.9158485494 -0.5373642753 0.3501528757 0.4828418975
H -3.1800866442 -1.4143592196 0.4431625003 0.0948629401 -0.1629788533 -0.5018468802
H -3.3359508289 -1.4778077505 -1.3406557516 0.3385255670 -0.0271316466 0.0712593336
H -0.9868589310 -0.3218930236 -1.4177094221 -0.1159570329 -0.0676039195 -0.5588065556
H -1.0235619026 -1.9200212366 -0.6046711502 0.5759631949 -0.1562952654 0.0479844843
H -1.2952987511 0.8459554245 0.7514694971 0.0472749368 0.6953855219 0.2154850748
H -1.1404567985 -0.7321973123 1.6150068751 -0.1658752340 0.4771677872 -0.1506467115
H 1.1734711735 -1.9775506868 1.5764273470 -0.2488550574 0.0208965378 0.0620339580
H 3.6667913694 -1.1282538226 0.9374055914 0.6354063103 -0.0804325707 0.0050923790
H 4.5360888333 0.6028766769 -0.7201333414 -0.4472721021 0.2328289028 -0.3887923269
H 3.3972208241 1.9743717951 -1.2639802856 0.1165375053 -0.4040297364 -0.1532271314
H 4.1583830055 1.9637305701 0.3419556787 -0.3050855026 -0.0548590942 0.1892676524
H 0.9207656567 1.7261033737 -0.4975902053 -0.4679137561 0.2866845075 -0.0801876169
B -2.0858661617 0.7949608071 4.4207475755 -0.3636344109 0.0793430047 -0.0167744069
F -2.3767938412 2.0079384193 5.1545621305 0.3851392661 -1.1356362637 -0.4736887311
F -0.9133556414 1.0085721615 3.5972970768 -0.9543220705 -0.2367737686 0.3000414026
F -3.2587006218 0.4912935774 3.6032747751 1.2105594065 0.2037714238 0.4096392393
F -1.8466692411 -0.3326220241 5.2864193997 -0.1607190744 0.9582562483 -0.5366259511
30
energy=-22756.6709642066 config_type=IL_pair name=BMIM-BF4 Properties=species:S:1:pos:R:3:forces:R:3
C -3.4593310105 -0.4976434221 0.8595196275 -2.0065601385 -1.1645803696 0.0536649557
C -2.2511190977 -0.4210399206 -0.0679591116 -0.7723936580 -1.2606191516 0.4072332124
C -1.7181561294 0.9683144275 0.0121500669 -1.4885068980 1.8413767538 1.9105887926
C -0.5263153748 1.2534211264 -0.8270131669 -1.4662100052 3.1530567129 -2.9625547870
N 0.6387461963 0.4705775234 -0.5627981419 0.7919695851 0.3586075295 0.5741297295
C 0.9308884997 -0.7082315423 -1.1580052864 1.5767264025 -3.8398870709 -1.4190103647
C 2.1457268503 -1.1830216918 -0.6526579330 -3.1685408749 -1.5577993760 -3.1614460346
N 2.5600766262 -0.2702084529 0.2432406115 1.4481607677 1.1727893417 1.6677368908
C 3.8018835449 -0.3765546408 1.0149745240 1.3262016576 0.2237719096 1.1163395427
C 1.6473397577 0.7435148667 0.3058675568 0.4296771887 2.4396661429 1.7182140595
H -3.7352358621 -1.5679878443 0.9731628025 -0.0403543027 0.3973440906 0.1673193963
H -3.2763611059 -0.0813836456 1.8542516149 0.1687285571 0.1314873105 0.1712613468
H -4.3456507063 0.0020047909 0.4022042857 0.5162906835 -0.0245138219 0.3645978206
H -1.5386837135 -1.1847246161 0.2908270182 0.2046772131 0.0840444244 -0.6263522962
H -2.6433696085 -0.5911394163 -1.0795620273 0.5682353237 -0.6253193829 -0.3107817968
H -2.5281074024 1.6394144883 -0.3679269517 0.5114794015 -0.0982340927 0.3055180121
H -1.5322231210 1.2526652938 1.0771323891 0.1493034840 -0.2181829416 -0.3443496387
H -0.3325936759 2.3492652876 -0.7553113388 0.6462353627 -0.4068778425 0.1511801692
H -0.8238130224 1.0952697271 -1.8972871659 0.4936344381 -0.1756428489 0.4132655324
H 0.3146084991 -1.1966471367 -1.9052939544 -0.4322315871 0.0508575032 -0.2624079699
H 2.6191211409 -2.1044416063 -0.9514870475 0.7151277585 -0.4833361707 0.1809952216
H 3.8308939467 -1.3579199540 1.5078581473 -0.0357772611 -0.2581108240 0.1155266764
H 3.8211028731 0.4080370815 1.7912204936 -0.2464315346 0.1279498963 0.1121974617
H 4.6952236417 -0.2739699500 0.3724111036 -0.1076962254 0.0546415699 -0.2285839223
H 1.7053482539 1.6324292267 0.9436679666 0.1327885836 0.0912737536 1.0360455994
B 0.8453625592 1.1697087066 3.9251454610 -0.5740435494 -0.4279194890 1.0982271576
F 0.2629946619 2.3002439122 4.6332593250 0.8343091249 -1.2180879224 -0.8268957183
F 1.2999369073 0.1433624744 4.8568357395 -0.4177397004 1.3006782956 -1.0689438988
F -0.2050284743 0.5875601686 3.0967174358 1.0462913964 0.6208063769 0.0308214910
F 1.9778588773 1.6048605253 3.1286968020 -0.8102873010 -0.3016944076 -0.3777152943
30
energy=-22756.3632410703 config_type=IL_pair name=BMIM-BF4 Properties=species:S:1:pos:R:3:forces:R:3
C 3.9991472455 -0.4701594222 -0.4557929101 3.4883544142 -1.0811288668 -1.1891111528
C 2.9535877158 -0.0569114366 0.5239863755 -1.1975422676 -0.1198744971 2.5448515174
C 1.5607453992 -0.0069075931 -0.1026139577 0.1685298603 -0.4560923465 -0.8197392766
C 0.5471873560 0.4214009559 0.9538372230 3.1317353261 2.2419325185 1.0794375597
N -0.7897701029 0.4920464901 0.4399193055 -0.5093219338 -1.8135526206 1.1514884525
C -1.4364808395 1.5302865383 -0.1251626722 -1.5746309455 2.9372294258 -1.9884009287
C -2.7222339746 1.1298036235 -0.4717483543 1.7475969031 4.2431878886 -0.6296345604
N -2.8358143797 -0.1560703203 -0.1081991035 -0.5202606854 -1.8567197184 0.1470398013
C -4.0308206073 -0.9453709696 -0.2988601715 -3.0986092686 -1.0977808084 0.2719616152
C -1.6618145149 -0.5595663784 0.4507101277 0.5094401693 -2.6659258766 0.9032541960
H 4.9900613290 0.0342923798 -0.2592361220 -0.9484946070 -0.2915519977 0.0177932107
H 4.2317434090 -1.5667926806 -0.3415008589 -0.4669758085 0.8471447763 -0.5797250787
H 3.7568934658 -0.2188051751 -1.5116206555 -0.1844494637 -0.3440863810 0.4512473043
H 3.1785531963 0.9225210658 0.9826994590 -0.0027123662 0.0477606247 -0.1567451101
H 2.8581865926 -0.7789877224 1.3741467442 0.6135642716 0.3414726977 -0.3502588368
H 1.6315386062 0.6935610178 -0.9374896214 -0.7369860676 0.1937067544 -0.5037419811
H 1.2419923337 -0.9942384064 -0.4584911056 0.2513621096 -0.1960452009 -0.4614882413
H 0.8736647009 1.4507742841 1.2747591497 -0.6861385572 -0.5392999417 0.0064907889
H 0.6735304535 -0.2283393465 1.8290164149 -0.7301223953 -0.3694346485 0.2683263280
H -0.9731556296 2.4983046051 -0.2599059580 0.2739922482 0.5124632803 -0.0877426839
H -3.4395912344 1.7896758540 -0.9435406232 -0.7744763819 -0.2413441240 -0.2901831019
H -4.4684946888 -0.7989846924 -1.3073640453 0.5343443929 -0.0614299487 -0.1027409518
H -3.8627327633 -2.0166913269 -0.1106126565 0.3695411679 -0.0423506098 -0.1413530817
H -4.8297995058 -0.6129386186 0.4157545598 0.5040866252 -0.0596326713 -0.1402605437
H -1.4461235626 -1.5519027255 0.8428321369 -0.0197841697 -0.2488997340 0.0473210077
B -1.0280615793 0.1616206730 -3.7876715892 -0.4027669127 -0.1252535201 -0.6263075079
F -1.7879334797 1.1931010037 -4.4665839474 0.8918190797 -0.9537933462 0.4922527935
F -0.3585433561 0.7522888049 -2.6537417331 -0.2358603443 -0.1256206696 0.0403049056
F -1.9564708430 -0.8469658406 -3.3391876773 0.6801812885 0.6402473923 -0.1019096341
F -0.0101411942 -0.4369870864 -4.6322276578 -1.0638583744 0.7020285931 0.7462495944
30
energy=-22756.0953488928 config_type=IL_pair name=BMIM-BF4 Properties=species:S:1:pos:R:3:forces:R:3
C -3.4256116933 0.8250779396 -0.3615406380 -1.3313656993 2.1327907756 -2.5054454399
C -3.0760143353 -0.3730631138 0.4582808282 -0.2985458687 -0.7241081323 1.4413247921
C -1.5961915722 -0.3706567987 0.8564423733 -0.8391359144 -1.4384957795 2.1038271518
C -0.7888058381 -0.3772078287 -0.4004229155 -1.3427140714 -0.3380459525 -2.1890273385
N 0.6470070461 -0.3755685854 -0.1467971046 -1.3732138322 -0.6558126044 -0.8503772184
C 1.3879206718 -1.5087471080 -0.0098250021 2.5841946621 -2.7311953791 0.5268819146
C 2.6937916303 -1.1091710791 0.2187117807 -0.5235732014 -3.8320968674 -0.0173787214
N 2.7420604251 0.2462327318 0.2199513068 0.6877567664 0.5834170833 0.1136143455
C 3.9299581085 1.0532037324 0.4254263884 1.6906025264 1.2556594472 0.1618129745
C 1.4766170732 0.6631432587 -0.0058317175 -0.8227922925 4.6452103709 -0.0941269955
H -2.6450160072 1.6170780900 -0.3758202418 -0.2567740382 -0.3266902059 0.1628504720
H -3.5872279939 0.5088258019 -1.4273243715 0.0279040386 0.5739155531 0.6378490875
H -4.3635160882 1.3272815911 -0.0167338532 0.4933830094 -0.4500890696 -0.2018060135
H -3.3429631785 -1.3001920244 -0.0642234366 0.1445631033 -0.1679903533 -0.0675787199
H -3.6801348756 -0.3518493420 1.3891351209 -0.4962960048 0.0922773733 0.6149889595
H -1.4076491755 -1.2925832486 1.4531893886 -0.0137777001 0.3497827687 -0.0800880654
H -1.3620412207 0.4696215741 1.5135445606 0.0795251839 0.5103244421 0.0211350893
H -1.0586199989 -1.3014155032 -0.9760755242 0.5614276901 0.3882982410 0.2347733988
H -1.0902655533 0.4751520830 -1.0400059682 0.5921540875 0.1112627686 0.0552801683
H 1.0271634428 -2.5440486214 -0.0679904262 -0.3400611146 0.2782354210 -0.0608859041
H 3.5395136387 -1.7586761547 0.3716029575 0.7765534658 -0.2082166490 0.1342019115
H 3.8533838649 2.0345907464 -0.0768596236 -0.3592627093 -0.0124218136 0.0940829185
H 4.1462041964 1.2058632704 1.5022251991 -0.1290589256 -0.0272758156 -0.0175505955
H 4.7761840120 0.5315304617 -0.0392955997 0.2910635823 -0.2382112787 0.0109361976
H 1.2042534209 1.7055781272 -0.0595676046 -0.3495224307 0.6474501624 -0.0807168631
B -4.1746861331 -1.4536250424 3.2268791943 -0.5952399427 -0.3997118355 0.7739276031
F -4.4579636087 -2.4868119778 2.2678086865 0.3610668980 0.7786501665 0.7318006794
F -4.8214172681 -0.2171102980 2.8133267733 0.9963529011 -0.7966559762 -0.4732045899
F -2.7559159460 -1.2222609880 3.3280042967 -0.8539786826 -0.3003430731 -0.0382030955
F -4.7184699943 -1.8268710486 4.5223537278 0.6421440748 0.2977712026 -1.1451549430
30
energy=-22755.5750718319 config_type=IL_pair name=BMIM-BF4 Properties=species:S:1:pos:R:3:forces:R:3
C 2.6398519232 0.6799517876 -0.7841005415 1.2812414306 1.3420861419 -1.3922461244
C 1.9297461922 0.9407069117 0.5148862243 -1.0466495824 1.5611120701 1.0249597471
C 1.7060713917 -0.3409337759 1.2994600158 2.3295377705 0.2786023210 1.0013180864
C 0.8746960729 -1.3273377552 0.5354457799 2.1258044643 -2.7994659854 0.1640989798
N -0.4296929981 -0.8386075922 0.1975439500 -0.5072252923 -0.2482070047 0.3658620946
C -1.5266088639 -0.9932169551 0.9958082612 -1.3461361220 0.2353419579 3.7254862061
C -2.5974625378 -0.3976595569 0.3464983185 -1.4660016178 -2.8933218031 3.7120134041
N -2.1578350842 0.1061464509 -0.8190004167 0.2578879386 4.9460605829 -1.2781942809
C -2.9846379194 0.8164418603 -1.7996205998 -1.0110032994 1.0006315109 -0.4505265730
C -0.8445980303 -0.1742023359 -0.8839364651 2.6948434194 1.4167917953 -3.7057231386
H 3.6812729083 0.3818095057 -0.5288830598 -0.4320494520 -0.1536107510 -0.6658633697
H 2.6694832060 1.6621322943 -1.3243350895 0.2862779120 -0.8407485875 0.0352838575
H 2.1379772419 -0.0532201195 -1.4328553707 0.2574241204 -0.0338795358 0.0697731926
H 2.5610227902 1.6036545168 1.1251017195 0.0250098883 0.1523176819 0.0529854098
H 0.9823117133 1.4955644008 0.3421448944 0.1532322282 -0.3193864867 0.0943853303
H 2.7234894695 -0.7919710080 1.4162102175 -0.6093027460 -0.0591909454 0.0626417660
H 1.3553554061 -0.1553274333 2.3123647863 -0.6002879156 0.1559994759 0.4231231665
H 0.7621411195 -2.2395798590 1.1554663490 -0.3810057165 -0.0091499628 -0.1857367408
H 1.4503064898 -1.6440630286 -0.3576430936 -0.5683796132 0.0911248868 -0.1660956243
H -1.5291690093 -1.5016941951 1.9701103239 0.2310884410 0.1064488244 -0.3380573986
H -3.5964856357 -0.3799678899 0.7701779711 -0.6322329465 0.4359901212 -0.2982674278
H -3.7840190957 1.3362256520 -1.2042779656 0.3174378204 -0.4010150731 -0.6533468845
H -3.4285490913 0.1055494436 -2.5460823790 0.2407605485 0.3792779822 0.4043975684
H -2.3576915977 1.5878163938 -2.2869462569 -0.1199499371 -0.1379057902 -0.2304660271
H -0.2369760609 0.1217822871 -1.7286685035 0.4717608199 0.0539196063 -0.3566654787
B -2.2474154550 -3.2396948333 -1.0503561627 0.1785471241 -3.3112991193 0.0331474929
F -1.0346676969 -3.4491579835 -1.8388621103 -1.8044460140 0.9287461127 0.8045222777
F -1.9954370567 -3.7645865895 0.2734815736 -0.2349709916 0.9185523187 -0.9902423097
F -3.3929869311 -3.9338571073 -1.6109101186 1.5258792913 1.2337666135 0.4283006424
F -2.5608123876 -1.8161841458 -0.9299131303 -1.6199462871 -4.0416235667 -1.7050587785
30
energy=-22757.3734436757 config_type=IL_pair name=BMIM-BF4 Properties=species:S:1:pos:R:3:forces:R:3
C 3.4870424353 0.9074692969 0.5324539224 2.0138264184 1.8274913720 0.7392799366
C 2.9841593337 -0.0478383838 -0.4967604526 0.6839974517 -1.7120669466 -2.3962649991
C 1.6247041832 -0.6377540324 -0.1005122638 1.3435375942 -1.4477536276 0.1936884407
C 0.6887969665 0.5314724982 0.0264956176 2.2179003436 2.5739490832 -0.5505369776
N -0.6510625252 0.1939806385 0.3940670381 -0.1005042161 0.0962129195 0.7118280870
C -1.1437236636 0.1003065323 1.6480194754 -1.5275089731 -0.3887264091 4.5700811008
C -2.4757341875 -0.2466320003 1.5925750160 1.6725232953 0.4310389658 2.9046926973
N -2.7582530664 -0.3558045209 0.2717842185 -0.8958622089 -0.5176835401 -1.6292354783
C -4.0456983924 -0.7054255267 -0.3076303597 -2.8148354845 0.9170488988 -1.0918072049
C -1.6452830617 -0.0867374981 -0.4477230809 -0.0806564645 1.5619161730 -0.6352854712
H 3.2539894824 0.5293460821 1.5437470133 0.2062637038 0.3422149929 -0.0068831376
H 4.6065103222 0.9826552711 0.4079922189 -1.0263656668 0.2474346559 0.4502527677
H 3.0445721552 1.9244405347 0.3655631564 0.4757285491 -0.6543121953 0.4816058295
H 3.7185029263 -0.8858226960 -0.6709451971 -0.6470192373 0.5953306171 0.3498343386
H 2.8870982934 0.4579480014 -1.4853133052 0.0039640844 -0.1735654792 0.3643986192
H 1.3689244549 -1.3769021850 -0.8535604103 -0.7873125927 -0.3171101460 -0.4542790668
H 1.7521074872 -1.1602698396 0.8683562030 -0.3008295725 0.0879427821 -0.1135653050
H 1.1689745066 1.2172054345 0.7748543844 -1.0595186625 -0.4054797642 -0.0726808748
H 0.6555315690 1.1318011575 -0.9054176668 -0.1382917468 -0.3649572889 -0.1814974360
H -0.6293589330 0.2591785104 2.5857406084 0.8489909336 0.2124570662 0.1614812735
H -3.1377008612 -0.3953039612 2.4382785996 -0.5808622733 -0.1651774659 0.0162154034
H -4.8267109598 -0.6228192260 0.4850145851 0.4508557604 -0.5479987673 -0.1930273044
H -4.3517279428 0.0522759772 -1.0758382356 0.5172416509 -0.2971569601 0.2568865951
H -4.0424031495 -1.6793646169 -0.8206265492 0.1580431566 -0.3487400707 0.2621957696
H -1.5332573730 -0.0874054479 -1.5410722671 -0.9969214131 -2.0282292267 -3.5207577795
B -1.4020215829 -0.4861897687 -3.8665826950 0.9336119922 0.8103699069 -3.2441938561
F -1.6993346682 -1.4692645651 -4.8765173941 0.2035450374 0.7387337873 1.4780499035
F -2.0773741321 0.7394338274 -4.1913278636 0.3943578757 -0.9749722210 0.7143866008
F 0.0182556475 -0.2534823537 -3.8034413693 -1.2757482389 -0.3070760224 0.4203759233
F -1.8621096896 -0.9447266216 -2.5688224159 0.1102783717 0.1994402803 0.0028221280
30
energy=-22754.0080875985 config_type=IL_pair name=BMIM-BF4 Properties=species:S:1:pos:R:3:forces:R:3
C -2.9862245839 0.5064375715 0.6320617050 -2.0183518675 2.1405500629 -4.0805341798
C -2.0999009823 -0.7075531613 0.7687240237 0.6826548902 -0.5591497221 0.9409585124
C -1.6771857020 -1.1428730923 -0.6105034089 -0.3386024182 -2.2408339871 -0.2853939507
C -0.8982492816 -0.0456409067 -1.2582064274 -0.8636252761 0.4976353036 -4.1519533582
N 0.3094603905 0.2991349558 -0.5419020932 0.6737781058 -1.1810835857 -1.4933719084
C 0.5433812267 1.1890986629 0.4269397948 0.9047448751 3.3580612018 3.6124315394
C 1.8764914257 1.1508726115 0.7979892682 -1.8953165958 2.4813990198 1.8842748125
N 2.4501510381 0.2083293187 0.0241690656 1.8462201910 -1.3851774394 -0.1881543381
C 3.8467497361 -0.2176422843 0.0238612055 1.8378242042 -0.6143750203 -1.0916369184
C 1.5001190214 -0.3040899007 -0.7841879607 0.4827134411 -2.7975061109 -2.6077491034
H -3.5824770742 0.6755211898 1.5520889920 0.1371753925 0.4905467098 -1.4201978720
H -3.6666438223 0.2860936440 -0.2356507884 0.1745336140 0.4801460284 0.6125271041
H -2.4164327381 1.3836104139 0.3435035111 0.3848510987 0.6400162210 -0.1302126052
H -2.6894820056 -1.4993174844 1.2824532750 0.8437974293 0.1771750502 -0.5893599412
H -1.2200295999 -0.3995844069 1.3816301206 -0.3587379740 -0.8035314670 -0.0409660372
H -1.1103352925 -2.0992409431 -0.5607853341 0.0170006610 0.3761707498 -0.3397947076
H -2.5795147726 -1.3005304055 -1.2354870642 0.2436755775 -0.1405722658 0.0926467482
H -0.6215067277 -0.3355691736 -2.3186923389 0.2601432123 0.2212047738 0.9236716716
H -1.5013875923 0.8718291135 -1.3837429883 -0.0922985469 0.0125022186 0.3968865762
H -0.1653073389 1.8534884488 0.8772037479 -1.2032647100 0.4958629810 0.2194456851
H 2.3882957268 1.7461566143 1.5552676755 0.1818313537 -0.0205218699 0.0684734096
H 4.4021170102 0.4444411714 -0.6887489041 0.1015379502 -0.1940394498 0.6304918833
H 3.9305802039 -1.2532406402 -0.3650140476 -0.2666947680 0.1487431631 0.0198753260
H 4.2815994458 -0.2234455758 1.0345451378 -0.0497687095 0.4387858609 0.1719891950
H 1.6857322887 -1.0862857413 -1.5156373035 -0.0723498166 -0.2364437942 -0.2436757509
B -3.0987938450 0.5522423828 3.4617293745 0.1629377076 0.5975155841 2.7029775214
F -3.3341033311 -0.4478487760 2.4490242276 -1.9216979659 -0.9686096566 6.2701806483
F -3.8537719893 1.7594291184 3.1347157278 0.9873444996 -1.6562237878 -0.1246988078
F -1.6805612748 0.8249305577 3.5487661021 -1.4261535091 -0.2453531086 -0.3199893413
F -3.5781786060 0.0424768405 4.7421249112 0.5854500833 0.4846446624 -1.4516119113
30
energy=-22756.4352457521 config_type=IL_pair name=BMIM-BF4 Properties=species:S:1:pos:R:3:forces:R:3
C 3.1143509251 0.8044989152 0.9805656894 1.9679933634 -0.1932039210 -0.5091715450
C 1.9979942395 0.2939371935 0.0915569382 -0.5984928736 0.6848176846 0.0981867173
C 1.7127347516 -1.1739938115 0.3573390613 1.8505335842 0.3035222712 0.0279749897
C 0.5985955597 -1.5935423388 -0.5632304139 1.2018386358 -4.0274719502 -0.9391329946
N -0.6089334196 -0.8546018904 -0.3700359491 -0.7657153490 0.2207514895 0.4443338673
C -1.6015278024 -1.2062628320 0.4875839470 -2.9091389043 -1.3156205514 2.7324713224
C -2.6121986089 -0.2713034241 0.4185777636 -0.2837556107 -3.2937419238 2.5546306230
N -2.2214316672 0.6470880825 -0.4874052118 -1.2657626761 1.7397166597 -0.2887755695
C -3.0429029591 1.7963327955 -0.8272429934 -1.4100707847 1.3323916443 -0.2624267702
C -1.0180404822 0.2862210107 -0.9535086819 2.2883427598 1.5744233559 -2.5300989939
H 2.7755943607 0.9461210181 2.0142338464 0.1983492362 0.2504823950 0.0857653209
H 3.5214058285 1.7170172389 0.5080757367 -0.1131686954 0.2279754867 0.7474145013
H 3.9547931979 0.0580518800 0.9447569689 -0.6325409558 0.5861532878 0.3645049432
H 2.3023366999 0.3737315140 -0.9704937321 -0.2769601032 0.2046139683 0.1443565704
H 1.0762398578 0.8747580621 0.2917403805 0.2845861692 0.2125553580 -0.3758245636
H 1.5413677972 -1.4207160723 1.4013015833 -0.4999864249 0.1348297027 0.6719938102
H 2.6437278908 -1.7100076322 0.0645613210 -0.7367822647 -0.5661959901 -0.3511322348
H 0.9017411066 -1.5525062811 -1.6277138552 1.0644361269 0.3379119540 -1.0805969876
H 0.3795534789 -2.6782681250 -0.3721930697 -0.1199581321 0.6162983252 -0.2029686533
H -1.6231946318 -2.0849719619 1.1410270728 0.4943474912 -0.1385708144 -0.2114518358
H -3.5247997564 -0.3123344122 1.0013370911 -0.5460742446 0.5146613266 -0.0531702155
H -3.2044592245 2.4432265771 0.0554497258 0.3134607561 0.0134102597 0.1297629431
H -2.5617124966 2.3815783429 -1.6196830373 -0.0689904027 0.0495211862 -0.3473782205
H -4.0476464091 1.4144579137 -1.1068737384 0.2216855411 0.2308315618 -0.4311270982
H -0.4535882366 0.8214882374 -1.6855109817 0.6183188772 0.6589506512 -0.9136532873
B 2.8232729288 -2.8198374620 -2.5728398568 0.9559755460 -0.8033385889 -0.6251310749
F 2.6364366630 -3.9017748678 -3.5037623685 -0.0328114205 1.0354634290 0.6844828285
F 2.1988444984 -1.6011095535 -3.0450900024 -0.6280851319 -0.4792445767 0.9737679827
F 4.2431674920 -2.5790380342 -2.4314028963 -1.3327960085 -0.1320777194 0.1529678838
F 2.2236336249 -3.1944636293 -1.3107664755 0.7646023310 0.0257809218 -0.6870147232
30
energy=-22756.1585805193 config_type=IL_pair name=BMIM-BF4 Properties=species:S:1:pos:R:3:forces:R:3
C 3.4539474372 0.9358050981 -0.0100450767 2.9506049821 1.5701894442 -0.4397927952
C 3.0352523039 -0.4697967598 -0.3537218701 1.0659804402 -0.6653403919 -0.0518263788
C 1.5548059597 -0.5750657912 -0.6502336548 0.1722362514 -0.8628655231 -1.1053786836
C 0.7989352947 -0.1300676312 0.5804712018 1.5744260554 2.0914578642 0.5923105306
N -0.6447679138 -0.2006971333 0.3802221805 2.5003209725 -1.0051424342 1.1789226555
C -1.3414650691 -1.3254968741 0.6776440215 -2.6369048180 -3.2250384699 0.6847047959
C -2.6701700954 -1.0916764758 0.3852325070 0.7800816912 -3.0082455107 1.1476355263
N -2.7260010043 0.1860549339 -0.0852136915 -2.5358270681 0.5983497766 -0.6441241149
C -3.9799814194 0.7898316769 -0.4997174873 -2.4921381276 1.5578205532 0.1636940921
C -1.4897715995 0.7159479619 -0.0832371827 0.3957616452 3.4861879271 -1.2390334279
H 3.2503852857 1.6646417461 -0.8235298518 -0.3631810813 -0.2613633114 0.3935034150
H 3.1024276104 1.3053240419 0.9536740881 -0.3013519552 0.1216374486 0.2205752999
H 4.5805741219 0.9005916221 0.0506028078 -0.9481657487 0.2877061719 0.2024744983
H 3.6515422029 -0.7865340918 -1.2129324072 -0.3235146430 -0.2461976316 -0.0852890474
H 3.2991386409 -1.1125619106 0.4940606701 0.0074176700 -0.3432575700 0.1401248067
H 1.3362437619 0.0582322726 -1.5167358152 -0.4104867593 0.0544746330 -0.2367969640
H 1.3225449784 -1.6178022850 -0.8714216862 -0.3523653061 -0.3981900846 -0.3643390254
H 1.1041569588 0.9275595789 0.7860135586 -0.6601808353 -0.4701243513 0.1046026618
H 1.1100929595 -0.7174127803 1.4583130027 -0.3814185639 -0.1330260632 0.7803752558
H -0.9596621281 -2.2654543137 1.0770048615 0.6496176937 0.1024971167 0.1338513674
H -3.5207355147 -1.7765447971 0.4996147261 -0.0400242024 0.3577704220 -0.1108380822
H -4.3069881789 0.4686151266 -1.5053574651 0.2325335187 -0.1406178775 -0.1237402756
H -4.7814002663 0.5125080333 0.2321823193 0.4693477735 -0.1292766257 -0.3679666904
H -3.9472927164 1.8993337243 -0.4715092827 0.4489706604 -0.2354690267 -0.1432133895
H -1.2318116101 1.7046650274 -0.4001552193 0.2508333697 1.0561947338 -0.2872892344
B 1.2708077932 0.6205611921 4.7595604343 0.1174680727 0.5235272750 0.3284314441
F 0.9980825527 -0.3054098829 3.6830746454 0.0659600233 0.3147360664 0.1900432316
F 0.5477855122 1.8516697702 4.5475716569 0.7314527604 -1.3489469663 0.1874097263
F 2.7007043866 0.8695519720 4.8143046289 -1.2171642853 -0.1833132351 -0.1094912415
F 0.8749096862 -0.0062586449 6.0148183276 0.2465035105 0.5363747224 -1.1348902198
30
energy=-22755.0178943051 config_type=IL_pair name=BMIM-BF4 Properties=species:S:1:pos:R:3:forces:R:3
C 3.9764198451 0.5946634305 0.8551134216 3.4405295610 1.1246760609 0.0876478008
C 2.9546802773 0.1333188510 -0.1294163711 -0.9457266947 -1.3145035696 -0.9689870503
C 1.5312461743 0.1315435853 0.4408624727 0.0620908395 1.8635976165 0.2040104678
C 0.6554364561 -0.3570019304 -0.6849300060 1.6446427328 -1.4538754891 -1.8884324305
N -0.7393833402 -0.4154260558 -0.2978382890 0.4641827904 -0.4651577138 -0.5781179471
C -1.3121392545 -1.5089305889 0.2515975059 -2.4173400993 -3.0395477519 1.9010211098
C -2.6548784095 -1.2040274366 0.4923561957 2.5156728750 -4.1070053822 0.9948992748
N -2.8525549662 0.0648491525 0.0809134982 -2.1178627075 -0.7989112297 0.5343327796
C -4.1461395587 0.7277479287 0.1780834733 0.2658799943 -6.2151457277 0.1621409499
C -1.6980524626 0.5251971662 -0.3898916458 1.0887201033 3.7165671918 -1.6154635621
H 4.9662540858 0.1668984712 0.5231587159 -0.6989876212 0.3708242955 0.5715911633
H 4.1303760915 1.7069728339 0.8145813506 -0.4648775150 -0.8117656604 0.3711869458
H 3.7960118738 0.2612223216 1.8817071844 -0.1682152641 0.0182490277 0.1860980005
H 3.1568025392 -0.9283354363 -0.4330042969 0.1415338891 0.8034223282 -0.1028564832
H 2.9338937272 0.7886637297 -1.0198817246 0.3399633710 -0.3128179678 -0.0541883152
H 1.2342623796 1.1858359054 0.6683039765 0.1191041999 -0.6937497349 0.4858130411
H 1.4262174619 -0.5433005952 1.2958135708 0.0127826931 0.1300809567 0.4660524661
H 1.0185836036 -1.3938066196 -0.9456247297 -0.7969931470 0.5540643422 0.1516439798
H 0.7941750797 0.2252430905 -1.6140089535 -0.3235989190 0.3864804419 0.1319428906
H -0.8134767282 -2.4537366546 0.4658021683 0.4149419868 -0.0120738501 -0.1205242339
H -3.3862013766 -1.8777233884 0.9300831577 -0.5429463494 0.1634383176 0.0544161439
H -4.6762384872 0.5467325354 -0.8024851063 0.7243939665 0.3945113699 0.4964127488
H -4.7828859000 0.2871228181 0.9514518010 0.3732978559 -0.5282318332 0.4210991583
H -3.9906895430 1.8239986723 0.2643792500 1.0579972359 -0.2068909447 1.0073590403
H -1.5217195683 1.5122782136 -0.7965549726 -0.3794711129 1.1115235664 -0.4667739195
B -4.2773925513 3.0409845526 -1.5057040905 0.1171055358 2.4388179264 -3.3320161082
F -4.5996524848 2.0941181371 -2.5393067129 0.4121867397 0.4001367364 1.5812621379
F -5.0233010585 4.2590595963 -1.7572749066 0.9471225427 -1.6021071978 0.6774050462
F -2.8621264691 3.3189637734 -1.4775538817 -1.0890262594 -0.8293681339 0.3904954264
F -4.6719528025 2.5414019574 -0.2016873728 -4.2002689700 8.9141026641 -1.7647501245
30
energy=-22740.7632134001 config_type=IL_pair name=BMIM-BF4 Properties=species:S:1:pos:R:3:forces:R:3
C -2.4201693899 0.8289981737 -1.2769772394 -2.6051750460 1.0056383073 -2.5523917276
C -2.1421644946 -0.4438810442 -0.5510455957 -0.2759479511 -2.1272600059 0.1334071992
C -1.9946712587 -0.2917002186 0.9289038808 16.9941230626 -15.2705951676 -5.3595499851
C -0.8763315897 0.6230714531 1.3073051442 -2.9095823382 0.9150626118 1.8414529628
N 0.4108366372 0.1774666487 0.8301533227 0.6047399961 0.3170924639 1.2115675506
C 1.2367909630 -0.6374838531 1.5359304060 2.9355373645 -2.5828156588 1.7166754351
C 2.3926851919 -0.8743884586 0.7950907514 -1.3571514979 -1.8513677927 4.6684964166
N 2.2444556706 -0.1955363922 -0.3504299405 2.1315271874 -0.2348940282 -2.4818028667
C 3.2393819314 -0.1688998617 -1.4290890479 1.5425005863 0.4304719881 0.3170429820
C 1.0561204568 0.4276275503 -0.3149857111 -2.1509872093 2.7115239425 -3.6750220018
H -3.4044943760 1.2508278412 -0.9240945637 1.0625609856 0.0145520012 -0.1819170333
H -1.6471680929 1.5909977482 -1.2448837684 0.3796070137 0.3316299482 0.1671166378
H -2.6056173434 0.5456365274 -2.3489516683 0.3477570358 0.6102850724 0.6052410792
H -3.0064840770 -1.1236375629 -0.7498161775 0.5010292921 0.1161890310 -0.0085533156
H -1.2530836108 -0.9330830572 -0.9742611034 0.4008973587 -0.2099047594 -0.5847266287
H -1.8445097925 -1.2950593318 1.3659707277 0.9401749223 -0.3532699331 -0.2253687635
H -2.9265229229 0.1525183582 1.3657123016 12.9834080796 -57.4609868537 5.7206670733
H -1.0460480043 1.6421315707 0.9254027035 0.1974260853 0.2560673863 -0.2147948519
H -0.8426095247 0.6946958227 2.4212184564 0.6740998588 0.0263034642 -0.3361465790
H 1.0120495408 -1.0314418347 2.5217317185 -0.3048958206 0.0399232500 0.3528588359
H 3.2011055744 -1.4968707789 1.1508154488 0.7902078388 -0.1553834048 -0.4642552903
H 3.0355227711 0.6958396598 -2.0815172318 0.0908778825 -0.1360450299 -0.1886847740
H 4.2248951104 -0.0571160418 -0.9031135764 -0.3900078292 0.1791420788 -0.6451508402
H 3.2704526895 -1.1240315123 -1.9637470946 -0.2522907966 -0.2964128855 -0.5179679747
H 0.6855779403 1.0433185943 -1.1100773021 -0.2957149942 0.6757736377 -0.6154960465
B -4.3244282976 1.5498544610 1.5951259079 -6.6641852203 3.7063318668 1.3800190748
F -4.1317140155 2.8827319814 1.0895194883 0.5741847930 -2.0392995803 0.5660163760
F -4.6340599730 1.5815399191 3.0148085543 1.3100886788 -0.4402189633 -2.1266140375
F -5.4614656994 0.9578807331 0.9070783903 2.3362483123 0.2429377580 0.7265492727
F -3.1167559653 0.7761529728 1.3334002916 -29.5966924501 71.5598140648 0.7493013978
30
energy=-22755.5290085541 config_type=IL_pair name=BMIM-BF4 Properties=species:S:1:pos:R:3:forces:R:3
C 3.3851475160 0.2597620593 -0.8162998658 2.9007376936 -0.2680706305 -2.0266252010
C 2.1877385308 -0.2981743744 -0.1200193385 -0.4541959688 -2.0897544234 1.1678872224
C 1.6748336930 0.6117450217 1.0017583841 0.8675352510 -0.0131237931 -0.4701350679
C 0.4735410719 -0.0293005580 1.6414404422 -0.4469772452 1.0129112885 -4.3104287855
N -0.6159760237 -0.2574021115 0.7527765991 0.6159197064 1.8688130220 0.1570209835
C -0.8234884428 -1.3699348529 0.0204460494 -1.4882297224 -2.4632713127 -2.2277427121
C -1.9854133149 -1.1949330580 -0.7069681994 1.3583321549 -3.8348068717 -0.9744148401
N -2.4578031709 0.0219928551 -0.3992422280 -0.7347137192 1.8258721552 -0.0980679035
C -3.6491821929 0.6455365076 -0.9112200025 -3.6920973554 0.0161554924 0.3922921702
C -1.6154985581 0.6021115385 0.5004366938 -0.9449943942 2.5755173292 0.6900499651
H 3.4438520020 1.3656307264 -0.8337931960 -0.2666755420 -0.2838110229 -0.0895366072
H 4.3488138018 -0.1160284284 -0.3648909919 -0.9220002027 0.4792536816 -0.1649685449
H 3.3935809102 -0.1346295756 -1.8669503353 0.1805494348 0.6286273739 0.5433157687
H 1.3663695067 -0.5494117929 -0.8184166728 0.2149994302 0.4275258877 -0.0596940657
H 2.4722745069 -1.2829021479 0.3529461139 -0.2630966974 0.7479392863 -0.4202467439
H 2.4445736240 0.7154276936 1.7925273672 -0.1547318359 -0.0579192801 -0.1896279270
H 1.4977838665 1.5995249757 0.5781517261 -0.3498660074 0.6890225799 -0.0536314204
H 0.7855965224 -1.0108837780 2.0468668183 0.5000700579 0.0899959375 -0.5226459374
H 0.1098150807 0.5682943558 2.5012858188 -0.1284880575 0.0015709017 0.2706239308
H -0.1750827991 -2.2133803406 0.0335618949 0.8913878700 -1.0010372780 0.1726689145
H -2.4452423643 -1.9016600109 -1.4035273043 -0.2427876637 0.2150168590 -0.0513225487
H -3.5457506250 1.7176644220 -1.0712939908 0.4829250082 0.5183347350 -0.3605718983
H -4.0264691339 0.1219706848 -1.8057889683 0.4425578413 0.1437764572 -0.2546188059
H -4.4733230703 0.5275706946 -0.1511593680 0.4905503290 0.1143275269 -0.3359499260
H -1.7706909369 1.6014094938 0.9172905911 0.1892356818 0.0169039418 0.1158997685
B 0.6571641126 -0.8670253458 4.0206367002 -0.4368232144 -2.2434472204 4.3347516478
F 1.6572832092 -1.1555496604 3.0275295040 1.4875349788 -1.6675927351 2.5862023956
F -0.0395451046 0.3705287811 3.6973830754 -0.7123456333 0.7056674932 4.6482032234
F -0.3384700999 -1.9279519194 4.0820014466 1.4822282161 1.6397715993 -0.5537273981
F 1.3075995287 -0.7489993406 5.3027884774 -0.8874394409 0.2214942624 -1.9136886086
30
energy=-22754.9774525170 config_type=IL_pair name=BMIM-BF4 Properties=species:S:1:pos:R:3:forces:R:3
C -2.6573850563 0.9988226339 -0.3421785029 -1.6616667844 1.8321968291 -1.6655025225
C -2.1358839039 -0.3970696472 -0.5125549563 -0.9168917102 -0.6634918437 -1.7632326193
C -1.8112295436 -1.0850951817 0.7692385617 -0.1611058627 -3.6356503236 -0.0904630410
C -0.7658729927 -0.4220705395 1.6112798001 -0.9634791150 0.9620910242 2.2734883664
N 0.5079278488 -0.3116658598 0.9298415330 -0.2950167837 0.3685094551 -0.1420256979
C 1.4781258968 -1.2484730557 0.9771852275 2.3161332367 -4.0836141176 0.9321823730
C 2.5640609979 -0.8478487046 0.2274516985 -0.4836581460 0.4758020820 5.3633199896
N 2.2243933829 0.3530405218 -0.2726332873 0.6594723768 1.8093556256 -0.8004572480
C 3.0571693425 1.1821015421 -1.1366605655 -0.6172625868 3.9032314168 -0.6674124548
C 0.9883166363 0.6739408455 0.1504292602 -2.5004164101 3.0502127491 -0.6840474459
H -1.9142412108 1.7723854522 -0.1665137784 0.5003433384 0.1675790221 0.3790096914
H -3.4418309331 1.0537799075 0.4179282342 -0.0205938125 0.0098697107 0.3738063824
H -3.1556388362 1.2717090503 -1.3084426705 0.3164337315 0.0862598956 0.6620283812
H -2.9599208433 -0.9759151252 -0.9853024397 0.4495328646 0.0231039200 -0.0233216217
H -1.2804929339 -0.4281381597 -1.2038342771 0.0906343340 0.0597584015 -0.0247196331
H -1.3885084984 -2.0917319962 0.4811839057 -0.3274023542 0.6421769091 0.3808230458
H -2.7132885136 -1.3323131089 1.3635297237 0.1459881491 0.5327931744 0.0419457402
H -1.0456208020 0.5830772402 1.9576158581 -0.2505731766 0.3026346159 -0.0600066372
H -0.6269466147 -1.0373150453 2.5102311462 0.4109766447 -0.0918570793 0.2995174779
H 1.4759984765 -2.2032570077 1.5070992390 -0.7054011976 0.3051909104 0.3825807689
H 3.4957079412 -1.3702596003 0.0639909935 2.2021398569 1.0022404446 2.4470112270
H 3.3330735238 2.1483617066 -0.6536527381 0.0430347444 -0.3417783470 0.5916224833
H 2.3810194910 1.4952173183 -1.9834765218 0.9407591254 -0.3089971093 0.2976153452
H 3.9206125430 0.6329279209 -1.5124485969 0.1602200917 -0.1783278126 -0.2475688232
H 0.4704546019 1.5857888926 -0.1023790159 -0.4062595704 0.5247395662 -0.1665984236
B 3.7928411891 -1.6140454152 -2.2932573206 1.4453333668 0.1428904868 -3.9771556743
F 3.4374938769 -2.6868567592 -3.1858045112 0.5316408392 1.4233214838 1.4745201646
F 3.1106269231 -0.3887470227 -2.6844078754 0.9539481647 -2.8425860728 -0.4839010872
F 5.2365699521 -1.4003016085 -2.2260684341 -2.5954522676 -0.2965085133 0.2819589909
F 3.2917214860 -1.9573602364 -0.9663968357 0.7304797921 -5.1949659160 -5.3756663335
30
energy=-22756.6613597552 config_type=IL_pair name=BMIM-BF4 Properties=species:S:1:pos:R:3:forces:R:3
C 2.9788676955 0.6554414994 -0.2870003824 3.1293125210 0.3161153760 -1.5019872588
C 2.0383507178 0.4336840151 0.8579629685 0.1687781353 1.6413658155 2.1535358989
C 1.5572914781 -0.9835856246 0.9564331906 0.6047007892 -1.2059485354 1.4369533433
C 0.8159602942 -1.4289629070 -0.2858873909 0.1957401863 -1.6195414381 0.1647155389
N -0.3315816087 -0.5530299567 -0.4561163694 -0.7762331145 -0.3544931782 -0.3513198260
C -0.4130511928 0.6085494959 -1.1381046422 0.0513643905 3.3956652819 -2.5139973778
C -1.6923580572 1.1233474012 -1.0465156072 2.9083434991 2.1391408535 -2.2155780629
N -2.3852524117 0.2562313635 -0.2986328961 -1.6911565801 -0.7333361944 1.4731426020
C -3.7794984567 0.3794249532 0.0680386593 -2.3696494743 0.5595493941 0.4226616957
C -1.5626788426 -0.7469488584 0.0520569439 -1.0542996342 -3.9801037382 2.8074540425
H 4.0025483027 0.9791036069 0.0582132368 -0.9561229308 -0.5853576874 -0.0809921034
H 3.1307675179 -0.2545168121 -0.9139347591 -0.1350659418 0.5818172217 0.3406439782
H 2.6221707543 1.5097816673 -0.9074476293 -0.8447244981 0.4719377409 -0.6770023665
H 1.1712795410 1.1273548459 0.8386197563 0.3056189115 -0.1004173317 -0.0599838948
H 2.5976216584 0.6473694639 1.7978469895 -0.5472653421 0.0081056309 -0.1486714122
H 0.8824828107 -1.0869785692 1.8300260281 0.2724951145 -0.3427396295 -0.0798663923
H 2.4543697095 -1.6253366608 1.0646333080 -0.4058106879 -0.2013894532 0.2243623622
H 1.4193734474 -1.3636290350 -1.1910812931 0.3769272918 -0.0535997398 -0.4908596167
H 0.4117138095 -2.4452085874 -0.1402281322 0.0864257460 -0.2228719125 -0.2938292823
H 0.3908091181 1.0858393898 -1.6835865044 1.6808884882 1.0102881654 -0.3258323482
H -2.0642713871 2.0402156850 -1.4873699762 -0.3831314843 0.3472191660 -0.0789461364
H -4.3726535427 0.1322426910 -0.8309753627 -0.3366408141 -0.1102605686 0.0598430721
H -4.0103193407 1.4443792660 0.3426516666 0.2278669424 -0.7230259717 0.0532476066
H -4.0285265209 -0.3215175521 0.8939710225 0.0940910734 0.3093226381 -0.2092182214
H -1.8334154938 -1.6132507808 0.6656916022 -0.1659853626 0.0713650139 0.0100626557
B 2.2190120860 3.0584937298 -2.8377487704 0.8924958853 0.5267144661 -1.5199728291
F 1.9395978301 2.0418350345 -3.8385582881 0.0544898900 1.0969326631 1.1827802825
F 1.6176893549 4.3296062146 -3.1824016353 0.3740361458 -1.5835856760 0.5293758264
F 3.6538466989 3.2450355483 -2.7353489989 -1.4497449152 -0.2935390076 0.0646438891
F 1.7133717491 2.5797031802 -1.5585422338 -0.3006771865 -0.3629239110 -0.3862541328
30
energy=-22727.8096565516 config_type=IL_pair name=BMIM-BF4 Properties=species:S:1:pos:R:3:forces:R:3
C 3.9962346360 0.5734241532 -0.3180547990 2.4023939152 0.0726966434 -0.2698033162
C 2.9255783435 -0.4309132616 0.0401773234 0.3947380306 -2.0826602493 -0.5529594837
C 1.5384911915 0.0959456923 -0.2577221507 -0.0941694607 1.3635386700 1.6680789121
C 0.5530636478 -0.9825479313 0.1362286529 0.4178523228 -1.1588533075 1.2267817143
N -0.8183070274 -0.5412915473 -0.1251180758 3.7422246283 -1.1047891784 0.5342551632
C -1.4208362973 -0.7656700234 -1.3003184987 15.6855753422 -0.4150920587 11.6512408491
C -2.6928490021 -0.2395089971 -1.2464972524 1.5718624889 41.3410266640 38.6512163367
N -2.7955735767 0.2909665962 -0.0050125559 -3.4743393924 1.8517329505 3.8690216989
C -3.9837985353 0.9592030842 0.4934356319 -1.3486147518 1.7226790909 0.9776837117
C -1.6648554041 0.1107300052 0.6759614500 1.7917580156 0.9675818972 5.4725062724
H 3.5936930522 1.5529976444 -0.5854714246 -0.0200864333 0.3817682727 0.3642139517
H 4.5794938557 0.2233288524 -1.1975533660 -0.2382830353 0.1882055195 0.2987250166
H 4.7133020516 0.6125661613 0.5307192023 -0.1920769810 0.6547179145 -0.4812386344
H 3.0874732622 -1.3531172587 -0.5831730249 -0.1449223811 0.4807804175 0.6394516028
H 2.9975120342 -0.7385018406 1.0993887553 -0.0464875999 0.0837409401 -0.1197154898
H 1.4646634096 0.4097427112 -1.2981270440 -0.3514541663 0.2416345020 -0.4061240845
H 1.3379245185 0.9367412276 0.4674300126 0.1691664957 -0.1618407908 -1.1758744398
H 0.7518800453 -1.9286946842 -0.4041435085 -0.3012888324 0.1104091105 -0.1569297647
H 0.7088952281 -1.1939140792 1.2139078855 -0.2613890760 -0.0287586518 -0.0196708881
H -1.0428959050 -1.2674526549 -2.1922093844 3.5084331659 -1.1385914522 3.1365374578
H -3.4326501570 -0.2571234338 -2.0356248678 -18.1744852939 15.9001240620 0.0267314955
H -3.7659853426 1.9969895938 0.8294950428 0.2752776000 -0.2705948442 -0.0240823468
H -4.4513338569 0.4490795070 1.3431076818 -0.1730494902 -0.4061601650 0.3446067353
H -4.7474539999 1.0661152347 -0.3015575121 0.3650810634 -0.4227712981 -0.2704730121
H -1.4316661720 0.4209052489 1.6970060458 -0.1111078634 -0.0935445932 -0.0090011357
B -2.1612300329 -0.5047639561 -3.2821176191 1.6347815438 3.2079872232 -13.1223370476
F -2.3564407940 -1.5454895932 -4.2538514818 -0.0621228671 1.3497276379 2.4890560098
F -2.7864503891 0.7205864201 -3.7110972919 0.7693126142 -2.3323407586 1.2116609274
F -0.7342673298 -0.2638335830 -3.1577715037 -1.2461147703 1.2037333475 -3.1643466090
F -2.6970191616 -0.9221388143 -2.0102712171 -6.4827842333 -61.4893254096 -52.7936639203
30
energy=-22756.3743971783 config_type=IL_pair name=BMIM-BF4 Properties=species:S:1:pos:R:3:forces:R:3
C 3.5497049896 0.3313140903 -0.7323053286 2.8788292561 -0.3941038388 -0.9234113638
C 3.0098806313 0.2537000922 0.6553763861 0.2928103116 0.2816520913 2.9813965307
C 1.4937722856 0.4221373316 0.7291951965 0.4708943935 1.9664608758 0.6375460976
C 0.7889383655 -0.6479029696 -0.0648713123 1.5887123049 0.5983956665 -2.0677330156
N -0.6537669924 -0.5101220712 -0.0105700147 1.9903632916 -0.8624546078 0.5594071621
C -1.3940770161 -1.1138461488 0.9472891122 -3.1213854867 -1.3818117694 2.4718488776
C -2.7251751548 -0.7726936058 0.7021662181 1.7138357204 -2.7409421646 3.4387070305
N -2.7208783948 0.0168654214 -0.3873680720 -2.4759942752 1.0692590863 -1.4225712397
C -3.9523113213 0.5731471791 -0.9460752037 -1.4104588103 1.8749329845 -0.7405531150
C -1.4582999843 0.1776730722 -0.8228458580 0.7810425688 1.7768648105 -2.6369530149
H 3.8440521352 -0.7205481464 -1.0166324617 -0.0627998445 0.8958500877 -0.8264311877
H 2.8232519582 0.7646585230 -1.4216566012 0.0812709102 -0.0287905380 -0.4055225701
H 4.4831374928 0.9639803216 -0.7140399300 -0.8481740965 -0.5471904324 -0.3484144774
H 3.2647448888 -0.6920549989 1.1724916636 0.1785517522 0.0527670874 -0.2982566155
H 3.4461612630 1.0651545696 1.2878198854 -0.2791095894 -0.3561541596 -0.1877107592
H 1.2314887633 0.4594600862 1.7871735260 -0.6215495926 -0.1833459999 0.4231621703
H 1.3010524811 1.4228498456 0.2903155017 -0.4962354224 -0.2447745443 0.1546762053
H 1.0915969065 -0.4909275143 -1.1329503007 0.5017132112 -0.8338756201 -0.3819167449
H 1.1245563845 -1.6533092555 0.1942604048 0.2451815177 -1.1536043571 0.0327626262
H -1.0117594772 -1.7485634590 1.7579092954 0.2929994261 0.1299132997 -0.2598501365
H -3.5609044746 -1.1069242981 1.3046158775 -0.7778639203 0.1928553631 -0.1450706255
H -3.7460452744 1.3736439723 -1.6897954418 0.3466043555 -0.2565526189 0.2473415650
H -4.5761474507 -0.1751416206 -1.4619223080 0.0077263817 -0.4077546545 0.2266501575
H -4.5045251250 1.0501357086 -0.1044871693 -0.0969662100 -0.3245260285 -0.3225351020
H -1.1484478798 0.7573138745 -1.6744822471 0.2394919498 0.4667344859 -0.7258610050
B 2.9922168393 -2.5518025173 -2.1472488521 -0.2196213644 -0.4602609775 -0.1520411237
F 2.6362349646 -3.5648687419 -3.1097885362 0.4784029658 1.0205793289 0.8017441554
F 2.3573372091 -1.2832218169 -2.4871411293 -0.1804822294 -0.8311036071 0.1939757854
F 4.4236377812 -2.3601788654 -2.0485970531 -1.6665929780 0.1553808292 0.1516078301
F 2.4497694022 -2.9755555064 -0.8578965205 0.1648566920 0.5118776579 -0.4830255357
30
energy=-22726.4117217296 config_type=IL_pair name=BMIM-BF4 Properties=species:S:1:pos:R:3:forces:R:3
C -3.7181466921 0.1104424174 0.1398625533 12.0632777586 1.1041158383 -29.2438883334
C -2.8064035924 0.9130346507 -0.7506336653 -0.7555464027 0.7957932590 -0.5870203559
C -1.3704587819 0.9288659290 -0.2911549443 1.1810518971 1.9282969383 -0.1884743053
C -0.7936488959 -0.4601464097 -0.2416120654 -0.3882627064 -1.6208764485 -0.7657736009
N 0.5957062771 -0.4507505287 0.2023697128 -5.6831565210 -0.3409194003 -0.7827584715
C 1.0067044905 -0.5458078167 1.4732573875 2.8836047671 -0.2323599641 4.1020575400
C 2.3931204853 -0.4937621490 1.4193405202 -2.6266367983 -0.4542197246 4.3546326338
N 2.7330440435 -0.3705850779 0.1200302117 5.8338841827 0.1582350109 -0.3821560701
C 4.1214587547 -0.2825966687 -0.3517640807 0.0244512490 1.0156515585 -0.6380977891
C 1.6266219956 -0.3434129672 -0.6371827361 0.2324614294 0.4984083311 -5.7223594519
H -3.2393279524 -0.2142293612 1.0857116544 12.3759798830 10.2574246505 -18.9772641155
H -4.0267814948 -0.8339908556 -0.3845114708 0.7358075543 2.9197661170 -1.7794047274
H -4.6047692064 0.7474482593 0.3984679130 -4.3182981190 4.1100793373 -22.2581364817
H -3.1515993632 1.9713698714 -0.8331803482 0.4469494530 0.1644821743 -0.1246109965
H -2.8405294738 0.5160084762 -1.7971199571 -0.0670204517 0.2193651452 0.4209083361
H -0.8160624951 1.5424355281 -1.0118712428 0.6092046153 0.1669350108 0.0511673227
H -1.2742418072 1.3921186892 0.6956340120 -0.0339515204 0.1892832874 0.2938307782
H -0.8625379109 -0.8992104431 -1.2533169014 0.2611210112 -0.2449429944 0.0037786847
H -1.3505651754 -1.1002080233 0.4675920673 -0.3477632221 0.3090403333 -0.0368998936
H 0.4053386881 -0.6447007993 2.3856219083 -0.3548077767 0.0263465001 -0.5072796955
H 3.0208046355 -0.5478235511 2.2990894668 0.8441168882 0.0336935015 -0.1088415973
H 4.5660403258 0.6412188384 0.0792485843 0.3981900635 -0.4010215583 0.1634640947
H 4.1187710732 -0.1268099734 -1.4526258858 0.0241683287 -0.4572261127 0.2906578207
H 4.6587603868 -1.1965747335 -0.0560695722 0.4860828596 -0.0147301500 -0.0804856163
H 1.6087016853 -0.2523333013 -1.7051831215 -0.1811585572 0.0376139389 -0.5347167941
B -3.8908257190 -0.5883443032 1.5930971759 -14.3031338730 -16.1811635149 15.0107816977
F -4.1098360907 -1.5997709468 0.5840082848 -3.8969857560 -13.5582674367 6.6877845430
F -4.5614118746 0.6296916036 1.2080502878 -17.2551727756 11.0112693293 41.1097364260
F -2.4570859928 -0.3679623333 1.6984512537 10.7853023791 -3.1520992183 12.6084973574
F -4.4416506450 -1.0805237686 2.8381795907 1.0332094390 1.7226790349 -2.3775957317
30
energy=-22754.5933880499 config_type=IL_pair name=BMIM-BF4 Properties=species:S:1:pos:R:3:forces:R:3
C -3.9619644129 0.8336367487 -0.3361164083 -1.4203370719 0.3860195861 -1.2575405249
C -2.9555158511 -0.1972039624 0.1048390219 -0.3924883626 -1.0696554294 0.3015834407
C -1.5355728350 0.1990156225 -0.2402691094 0.2467621007 2.2933012055 1.8576770729
C -0.6360282642 -0.9094253709 0.2517149541 -0.6273546549 -1.1001742433 -0.9854306176
N 0.7708473814 -0.6125479209 -0.0400517376 -1.6899863356 -0.5790603675 0.6473731412
C 1.4202011761 -0.9724176735 -1.1840353451 1.3896828565 -0.8610351534 -2.4949849646
C 2.7137576530 -0.5104307211 -1.0682760776 -1.2808384763 -2.2061034268 -3.5808466143
N 2.8200257990 0.1085003226 0.1214066132 1.4252184869 2.0153624970 1.6016030402
C 4.0478361582 0.7396829847 0.6228727749 2.2119943397 6.9452151460 -7.1242072019
C 1.6234623028 0.0505798903 0.7647297295 0.2326818334 0.5518745978 1.9483874424
H -4.1103072811 1.6408512670 0.3991384947 0.2117711579 0.1022530352 -0.2624430847
H -3.6321167047 1.2176030220 -1.3322520685 -0.5356623219 0.2146925578 0.6591414672
H -4.9281384530 0.3032321106 -0.4734487567 0.1173504615 0.5499387855 0.0115953912
H -3.0472128205 -0.3654916793 1.1885603111 0.0886434252 -0.2024881060 0.0532293693
H -3.1715070519 -1.1415918433 -0.4119806014 -0.1465242369 -0.2906827239 0.0662216377
H -1.4028015310 0.4654431414 -1.2846450052 0.1122856281 -0.0951503330 -0.6479746816
H -1.2920631884 1.0874634680 0.3985697176 -0.0381535778 -0.1495371741 -0.7911364520
H -0.8991962107 -1.8203589849 -0.3252614064 0.2463053279 -0.2246066474 0.5375190769
H -0.8132576114 -1.0279425191 1.3231101340 0.3641380529 -0.4361478752 0.5126547891
H 0.9778920560 -1.5226451907 -2.0203250389 -0.2526846296 -0.0074808718 0.2314198512
H 3.4602655925 -0.6569482897 -1.8409018387 0.7930227548 0.3089432967 0.1518156239
H 4.9033540243 0.1216056300 0.2908869306 -0.1477174753 0.3632559268 -0.0781910401
H 4.0684106457 0.7393137062 1.7312719525 0.0830409494 3.2445895436 -0.4550813836
H 4.1650818568 1.7598626025 0.2038189353 -0.4352750220 -0.1194057343 -1.3934445141
H 1.4145475703 0.4702136394 1.7499278375 0.1890614417 0.1323260814 1.1810845605
B 3.1245890610 -0.8162142540 3.0901631066 -1.0788367614 -2.4119243352 3.2898891003
F 4.0255523256 -0.3000671558 2.0908296390 -0.1567493209 -9.3267821798 8.9754231181
F 3.9084733178 -1.4550266343 4.1174853435 -0.9482643901 1.1119368994 -1.2526158150
F 2.2678119932 -1.8238357615 2.4909175878 0.5968374222 1.3266411504 -0.4184732148
F 2.2690146012 0.2235730530 3.6069392917 0.8216886666 -0.4756314991 -1.2667045331
30
energy=-22753.5025598890 config_type=IL_pair name=BMIM-BF4 Properties=species:S:1:pos:R:3:forces:R:3
C 3.8541048351 0.8623094061 0.5196573083 1.2250072333 1.0355845114 0.4164339100
C 2.9492876246 0.1217492751 -0.4710394320 0.1191752214 0.6912113103 0.0265097679
C 1.5536044238 0.1066993520 0.1411722682 -0.5505052548 0.3459878718 0.3490574403
C 0.6255490881 -0.6189344239 -0.8101666383 1.4880558022 -0.5062878870 -0.9991843480
N -0.7306298147 -0.6678148921 -0.2803836691 1.1670352208 0.3468130485 -2.2824380161
C -1.3015783122 -1.5931952624 0.5000458464 0.6235038904 -2.0117795532 -2.6504483589
C -2.6164340492 -1.1716524283 0.7246269765 -3.2508525663 -1.4184242385 -2.0738857768
N -2.7968018565 -0.0075463631 0.0738458725 -1.5855464037 0.0006553149 -0.7940368682
C -4.0386693406 0.7452708706 0.0674477876 -1.0332244509 3.1452409689 0.3596007974
C -1.6317447423 0.3122507225 -0.5523003725 0.2174307737 3.6694932641 -2.0958729577
H 3.9977497933 1.9285175123 0.1891783092 -0.0090176972 -0.8997853470 0.3731110721
H 3.3805830668 0.8835594410 1.5253777674 0.5086618723 -0.0999869916 -0.3196403121
H 4.8430893314 0.3616805890 0.5670011989 -0.2093852419 0.4087575192 0.2304982121
H 3.2600442186 -0.9159556372 -0.6195071936 0.3426791089 -0.2190035863 -0.2762207753
H 2.9527293122 0.6833664657 -1.4261289392 -0.0873141829 -0.5456460994 -0.0309391820
H 1.5467657411 -0.4283830542 1.1110855525 -0.0041242018 0.4254488414 0.0549047940
H 1.1529736366 1.1290586534 0.2412404801 0.2451176452 0.0432515097 0.4955164590
H 1.0243727050 -1.6395416159 -0.9463359893 -0.4181098467 -0.2336029581 -0.1857953268
H 0.6686905804 -0.0813147536 -1.7808093385 -0.5669786869 -0.3278861033 0.0455617799
H -0.8106682498 -2.4835121872 0.8677648318 1.3005379483 -1.1954017622 -1.8656004199
H -3.3494036891 -1.7160150109 1.3299629552 -1.6471490017 0.4472449989 -1.3853773203
H -4.2403793814 1.1983513396 1.0787482517 0.1541105812 -0.6204523283 -0.4621244924
H -4.9102824747 0.1768852519 -0.2705900201 -0.1196600666 -0.6354954914 -0.0137326671
H -3.9162327546 1.6151253448 -0.6204596446 -0.0126860408 -0.4162845181 0.1455515485
H -1.4667196921 1.1990414047 -1.1594341690 0.1157626246 0.0818311966 0.0838601623
B -1.4965185930 -0.8097593657 3.1048442326 1.8547029237 4.0359490284 5.3018628160
F -1.7756884104 -1.7651848447 2.0603515999 1.2875206770 -2.7651535809 11.0691677822
F -2.2026374143 0.4357623579 2.8326596569 0.5864075918 -2.1146971956 -0.1661676865
F -0.0689233611 -0.5210086379 3.1504210910 -1.8600219177 -0.8284210031 -0.8363216137
F -1.8706538691 -1.3069592208 4.4227888425 0.1130371180 0.1642732402 -2.5130123219
