40
energy=-60435.5835530612 config_type=IL_pair name=BMIM-NTf2 Properties=species:S:1:pos:R:3:forces:R:3
C 3.4422951019 0.4135438132 0.3476850391 1.8115263572 4.7224738596 -2.5974448248
C 2.9656477794 -0.7855507847 -0.4434965940 0.2077351561 -1.0453966659 -0.7787599020
C 1.4954887273 -0.6056763896 -0.8158209863 -0.1438464416 0.6470464357 -1.5772936111
C 0.7536987624 -0.4854981382 0.5052226707 2.3281949686 0.5411776721 -0.3669087497
N -0.6827720481 -0.3063929704 0.3143677019 2.6719500468 -0.7125596994 -0.8838999160
C -1.5681792896 -1.3378737326 0.2376678672 0.0539224635 -3.4363814978 -4.0240686147
C -2.8326428225 -0.8061445182 0.0562574632 -1.8449542234 -2.1048300045 -3.4850008502
N -2.6591601848 0.5340366988 0.0304902557 -1.4371913891 2.0636519274 -0.1036382393
C -3.7384462241 1.5190628558 -0.1433986723 0.3092820976 2.3611839635 -0.2647403191
C -1.3549163184 0.8402116917 0.1869651822 0.2286995800 3.6370576518 -0.0327355144
H 3.0122281287 1.3119628647 -0.1289593767 0.6060191097 0.2807846874 -0.1546278205
H 3.1965229144 0.3299314959 1.4255377475 -0.2926282143 3.1603747833 -2.4252924707
H 4.5674663241 0.4308267192 0.2707454753 -1.0373857623 0.4405441127 0.1392023749
H 3.0519195823 -1.6502519410 0.2461936160 0.0379897860 -0.1380039850 -1.2648784925
H 3.6157335865 -0.9099755553 -1.3224929979 -0.2539556044 -0.2691125432 -0.2468773759
H 1.3410625519 0.3662464693 -1.3284388567 0.2140531507 -0.3743065290 -0.3102113068
H 1.1351983079 -1.4055681017 -1.4603086433 -0.3123458322 -0.4997843569 -0.2873601567
H 1.2044612483 0.4231700011 0.9961409507 -1.0547566037 -0.8437457365 -0.1923524181
H 0.9698040288 -1.3680544001 1.1290977695 -0.4227517019 0.1042332902 0.0406618558
H -1.3027281856 -2.4033138985 0.3100023148 0.5479436123 -0.1137537423 -1.2012645527
H -3.7676540815 -1.3429004115 -0.0445562005 -0.3641826339 0.1789669931 -0.1536501877
H -3.5366668513 2.3873706433 0.5369420272 -0.3142672911 -0.6150077737 -0.0912650042
H -3.6654965723 1.9352320072 -1.1725679901 -0.4005941240 -0.3045156090 0.0469472070
H -4.7160512073 1.0771438729 0.0606058589 -0.2916830424 -0.2586420995 0.0275432194
H -0.9268132585 1.8384617088 0.2061183780 0.1280566361 0.3313980854 0.0247875036
O -0.4432551581 -0.6472233681 5.2179859901 2.0457697867 -3.2790740791 7.5716146705
S -0.8349873197 -0.3101193123 3.8255365926 4.1805821246 3.1506301485 1.1612296160
O -1.7398415007 0.8674910866 3.8654689748 -5.5774965240 6.2932045708 -1.1486143799
N 0.4884946109 -0.0137781519 2.7981866482 -1.2196473193 -0.8208321532 -4.1950726570
S 1.9683792233 0.2838896369 3.5685997217 -3.8222237441 1.7466375066 1.0222342539
O 1.8951071512 0.2913635620 5.0579177327 -0.0131215994 -0.5488489948 7.7524831539
O 2.5203659246 1.5836391564 3.0380779814 2.6275617879 5.3258790176 -3.5485448973
C 3.1699874279 -0.9823936203 3.1396592448 3.0922389442 -4.2275094826 -0.8154881718
F 2.7284709088 -2.2260306152 3.5240484978 -0.2285793122 -1.5771448017 0.2458804693
F 4.3593228133 -0.6976184208 3.7590197417 1.3967887293 0.1032191214 0.6903553648
F 3.3901853291 -0.9588947487 1.7619846833 1.1171179980 -6.5638497651 5.0645235845
C -1.7499501744 -1.6761715028 3.1138474124 -0.0317533470 -5.0947357190 0.2653288138
F -0.8769609149 -2.7586939682 3.0623298811 -0.1795162133 -1.2885853096 0.1058545289
F -2.9099211374 -1.9417347595 3.7728656817 -1.3112046467 -0.7465751361 0.0589102243
F -1.9588774080 -1.3275848521 1.7743140087 -3.0546088326 -0.2358420974 5.9471178367
40
energy=-60442.1395433263 config_type=IL_pair name=BMIM-NTf2 Properties=species:S:1:pos:R:3:forces:R:3
C 3.4422951019 0.4135438132 0.3476850391 2.0616451528 0.7882014861 0.2918594100
C 2.9656477794 -0.7855507847 -0.4434965940 0.4589365438 -1.1631429645 0.3564494294
C 1.4954887273 -0.6056763896 -0.8158209863 -0.0090676408 0.7339296404 -1.1705347075
C 0.7536987624 -0.4854981382 0.5052226707 1.8630200785 0.8058784894 1.0012952242
N -0.6827720481 -0.3063929704 0.3143677019 1.6250532580 -1.0883133988 0.7574580544
C -1.5681792896 -1.3378737326 0.2376678672 -2.4033981772 -3.1291013683 -0.2207248602
C -2.8326428225 -0.8061445182 0.0562574632 0.8199867628 -3.6107820470 0.2315428670
N -2.6591601848 0.5340366988 0.0304902557 -2.3047959279 2.0459172227 -0.1156292259
C -3.7384462241 1.5190628558 -0.1433986723 0.3590365338 2.3128838549 -0.2712752405
C -1.3549163184 0.8402116917 0.1869651822 0.7084352897 3.0258572241 -0.4543449519
H 3.0122281287 1.3119628647 -0.1289593767 0.4572026992 0.3723340610 0.6401623389
H 3.1965229144 0.3299314959 1.4255377475 -0.0500767368 0.4428709988 -0.4399121704
H 4.5674663241 0.4308267192 0.2707454753 -1.0299997304 0.4218599732 0.1915172896
H 3.0519195823 -1.6502519410 0.2461936160 0.1389184990 -0.3107771225 -0.7453080130
H 3.6157335865 -0.9099755553 -1.3224929979 -0.2299624067 -0.3180401840 -0.1496922251
H 1.3410625519 0.3662464693 -1.3284388567 0.2232929868 -0.3530065742 -0.2535788819
H 1.1351983079 -1.4055681017 -1.4603086433 -0.3666385219 -0.5138084427 -0.1922761879
H 1.2044612483 0.4231700011 0.9961409507 -0.9789974677 -0.4440704120 0.0455339172
H 0.9698040288 -1.3680544001 1.1290977695 -0.5113520785 -0.1111078532 0.2378340695
H -1.3027281856 -2.4033138985 0.3100023148 0.2312372092 0.3359484050 0.0437868870
H -3.7676540815 -1.3429004115 -0.0445562005 -0.5672416327 0.0842611488 -0.0523521669
H -3.5366668513 2.3873706433 0.5369420272 -0.3010830189 -0.5857859774 -0.1087958179
H -3.6654965723 1.9352320072 -1.1725679901 -0.3966123577 -0.2700236609 0.0424066510
H -4.7160512073 1.0771438729 0.0606058589 -0.2986070247 -0.2631034489 0.0220125065
H -0.9268132585 1.8384617088 0.2061183780 1.2664219660 1.5320397426 0.8206143226
O 0.4550485055 2.9191583270 1.1090984489 -2.4096021076 -6.9561347789 -5.0957201701
S 0.6359679967 4.1832916367 1.8958354799 5.1851661488 -0.5927007702 0.1343127094
O 0.8886806698 3.9011437025 3.3434142572 0.4850057645 -0.8825770671 7.4796314582
N 1.9818209685 5.0438892578 1.1960105713 -1.3190268134 5.5557802919 -2.1470239315
S 3.4114952538 4.1199089017 1.4418370657 -3.6102204698 -0.9846180947 -1.4358273964
O 3.9590511349 3.7938028597 0.0811552623 3.2156788469 -0.5653767204 -6.7782783922
O 3.1295390347 2.8417956522 2.1624037953 -1.2246204372 -6.3907887025 4.7256668447
C 4.5619048661 5.1273832781 2.3652304240 2.9488554775 3.3011758716 1.8274381145
F 5.7204279879 4.4108184708 2.5777655164 1.3693224705 -0.3002533899 0.2003401049
F 4.0185335528 5.4636139624 3.5709703461 -0.4407952240 0.8442579673 1.8051143562
F 4.7904830565 6.2596992643 1.5894870358 0.7363775080 0.9685404848 -0.0296426606
C -0.7720032211 5.2565372623 1.7386027473 -3.3560180243 4.2703845350 -0.9454129221
F -1.0012030142 5.5328773418 0.4093313935 -0.5451601740 0.6065746503 -1.5049819604
F -1.9159201254 4.6923624062 2.2505491623 -1.3238510601 -0.4340079800 0.8225694800
F -0.4320939448 6.4269576396 2.4100346809 -0.4696574327 0.8284798953 0.4421387366
40
energy=-60436.7608303073 config_type=IL_pair name=BMIM-NTf2 Properties=species:S:1:pos:R:3:forces:R:3
C 3.9821198642 0.6974848243 0.1944185531 1.2361341023 -0.2452169017 1.1501876855
C 2.9663324808 -0.3177410836 -0.2873995913 0.1977403800 0.3893296386 0.6990697572
C 1.5834625940 0.1465094655 0.1825280084 0.6424253929 0.6299109454 1.4587014007
C 0.6023940921 -0.8664600004 -0.3026094127 -0.2198113946 -0.1407215305 -0.2555549333
N -0.7780175072 -0.5878548229 0.0537741974 6.2782498189 6.6240644944 9.5167936283
C -1.4452126267 -0.9810992136 1.1639399457 -2.1069570353 -0.1146126513 3.5571030207
C -2.7475274744 -0.4899726714 1.0947308614 0.8360980171 -2.7286727730 4.0220908505
N -2.8475705763 0.1927088058 -0.0563962147 -1.0786237720 3.0267116691 -2.0444494657
C -4.0291883180 0.8964531633 -0.5778118330 -0.8320911113 -0.5342035999 -1.8814444358
C -1.6449862014 0.1283550837 -0.6838564238 -0.3937601864 5.7700829031 -1.1236885521
H 4.9799731369 0.4647781157 -0.2397200382 -0.2756542073 0.3236866570 0.3689268947
H 4.0171245811 0.5801463603 1.3166932189 0.3841554510 0.7423689649 -0.9711114521
H 3.6719313697 1.7123551187 -0.0989486141 0.2395187131 0.0673633372 0.2117086007
H 3.1868239522 -1.3142681782 0.1546609951 -0.2499356980 0.6395125565 -0.2413701834
H 2.9390423681 -0.4046280651 -1.3898979345 -0.4192846982 -0.2184544098 -0.0001929206
H 1.3595662145 1.1225112459 -0.2572302873 -0.0909979281 0.4791628415 0.1121531874
H 1.6056150066 0.2188055001 1.2960102150 -0.2759742661 0.2140434002 -0.4357626179
H 0.6749063364 -0.8623421642 -1.4284483898 1.0599102702 -0.2052661996 -0.2858765982
H 0.8776915945 -1.8967806513 -0.0142361257 -0.2139726386 -0.4528255054 -0.0467761287
H -1.0348638867 -1.5786304983 1.9723344062 0.4752763371 -0.1956847069 0.0389400581
H -3.5550843824 -0.6094466222 1.8051407282 -0.3505382464 0.0769758604 0.1781103234
H -3.7185256458 1.5769396157 -1.3865307152 0.1884113087 0.2336940194 0.1181189132
H -4.6989544420 0.1410357027 -1.0682983065 0.0358247054 0.4036242193 0.5416724796
H -4.5539472734 1.4540293108 0.1936178570 -0.2766086695 0.2055390557 0.6371376356
H -1.3931052569 0.5771116586 -1.6364650996 0.0835225132 0.6090912373 -0.5702728174
O 1.7291098309 -3.1298031914 -3.9055927150 -0.7790982961 -2.6834528645 -7.1911131061
S 2.0598549701 -2.5884839582 -2.5576614041 -3.6053709560 -1.8630364954 0.1488571635
O 1.7955690516 -1.1049807653 -2.4500161501 -0.7181499082 7.7622838874 -1.0022010046
N 1.1193093842 -3.3664466427 -1.3564557865 1.9017179763 -1.4811701358 5.8360397356
S -0.4612344688 -3.6591914601 -1.9538693028 4.5388483234 -3.7176221643 -0.4090563031
O -1.2599530396 -4.5169904466 -1.0149279905 -3.7343076406 -3.1042570718 5.3712526278
O -0.3322818874 -4.3303479146 -3.3067583483 -0.1887150308 -2.2339337325 -5.8644758835
C -1.3710521338 -2.1586659925 -2.2221623440 -3.2621778521 1.8649217239 -3.8203606437
F -0.6862917988 -1.4038166878 -3.1392934375 0.4583253329 1.7852194086 -0.5863219897
F -2.5873263427 -2.4929626199 -2.7733202515 -1.5435940418 -0.0714845039 -0.5698648479
F -1.5882493201 -1.4930790924 -1.0378099088 -5.6444610372 -9.5560365867 -8.2643059886
C 3.8090832353 -2.8036887130 -2.2669488497 5.8210319577 -1.8416756776 1.7841056822
F 4.5534880048 -2.1701124843 -3.2446482433 0.4009192495 0.8168106243 -0.5290280740
F 4.1690850957 -4.1445021667 -2.2996108244 0.1105687256 -1.0296153172 -0.1631682352
F 4.1351134410 -2.3460711964 -1.0030275464 1.3617043937 -0.2479648961 0.4994867388
40
energy=-60433.9800773890 config_type=IL_pair name=BMIM-NTf2 Properties=species:S:1:pos:R:3:forces:R:3
C -3.9376722163 0.5201847025 0.5416648688 -0.6030891739 0.4555539243 0.0358192749
C -2.8753965081 -0.5817413914 0.5387104641 0.0011973552 -0.1106832336 1.5079477326
C -1.5222902972 -0.0198456009 0.1210219937 0.1301210877 1.4939351455 0.5755118405
C -0.4738601526 -1.1206275747 0.1208660573 0.9108352904 11.6223755070 -4.3622998549
N 0.8030365950 -0.5646770150 -0.2786909035 -2.2788978931 1.5987859054 0.0231430040
C 1.3387823034 -0.4448958994 -1.5084164094 2.7034492154 0.9507259482 -3.0544529612
C 2.5813542012 0.1556406526 -1.3404119519 -0.9617164768 -1.1998505798 -4.8177880180
N 2.7718809302 0.3852996721 -0.0271539558 1.2026104355 1.4122865642 1.1599918700
C 3.9103291614 0.9905495792 0.6415839223 0.9162068329 0.0632444494 2.6540304543
C 1.6787020594 -0.0581888241 0.6190821566 -0.2670577281 -2.1502962894 4.3881657101
H -4.9217582762 0.0287195935 0.5984383460 -0.1923029105 0.4387958527 -0.2837855434
H -3.8348152265 1.1605214796 1.4377371537 0.0644562581 -0.0615409776 -0.2451880138
H -3.8255251242 1.1604249341 -0.3591592846 -0.4794012193 -0.3015256308 0.2768537269
H -2.7492606018 -0.9122669354 1.6012234439 -0.2605664266 -0.3359480198 -0.6850788275
H -3.1830681091 -1.4354181378 -0.0757664436 -0.0235310770 -0.1871932496 -0.2019335680
H -1.5531055263 0.4765425721 -0.8508258502 -0.2231358107 0.1864240334 -0.4745921184
H -1.2344706802 0.7365798296 0.8808472543 -0.0677825930 0.0442777416 -0.3070760572
H -0.3847556687 -1.5980173649 1.1018621945 2.3153102152 6.4428051874 2.6642017078
H -0.8074228421 -1.9012292813 -0.6036548020 0.6952419202 4.0972901300 -3.6595315322
H 0.8701425594 -0.7632967754 -2.4317952479 -0.3676060298 -0.1659201401 -0.2290514371
H 3.2941831041 0.4070798373 -2.1148671859 0.4610191256 0.1894591440 -0.1549835775
H 4.5998426669 1.4769141613 -0.0574475865 0.0034529341 0.1336181289 -0.2450416457
H 3.4767913964 1.6988880483 1.3893721877 0.5258299938 0.1792425438 -0.4741564128
H 4.4442411083 0.2123367594 1.2630661951 -0.1465838944 0.4045931260 -0.7757221047
H 1.5341151436 -0.0094770214 1.7097231895 -0.2380213811 0.5443309335 -0.1916139971
O 1.4551814239 -3.5194728806 2.6178196844 -1.8252339440 -1.0504727740 5.7648552968
S 1.6931515463 -3.3438442108 1.1285649862 3.4999459364 -4.4598747021 3.7021069643
O 2.2363605354 -1.9796592143 0.9355217228 4.7841431795 9.0187086116 -1.7734683933
N 2.7525345148 -4.5599704979 0.5241839747 -2.4248788671 -3.0891745754 -3.9283495783
S 4.3839370278 -4.2932712221 0.9991846373 -2.6568270178 -2.6944442895 0.8947241831
O 5.0597714644 -5.6581042128 0.9339544832 2.4174958582 -5.4593257839 -1.6940397133
O 4.5381607067 -3.8305430550 2.3987893364 0.5949564010 4.1984323103 7.8045179905
C 5.2551239060 -3.2628664498 -0.1783695568 1.7530787197 2.7550044638 -3.2836066565
F 5.2219388169 -3.9259955567 -1.3820194656 -0.0099810526 -0.2115057758 -1.7865793794
F 4.6574603603 -2.0146835536 -0.2702167884 0.1433695885 1.1937313381 -0.5013409364
F 6.5664375130 -3.1952374539 0.2283227338 1.4631041152 0.7311034406 0.2976850659
C 0.1368660726 -3.5786832045 0.3008321222 -2.3486826770 -5.1747614823 -4.1734768829
F -0.3178637953 -4.8541786414 0.6049812057 -0.8294469330 -0.6230897677 0.3848213758
F -0.7807750006 -2.6187303641 0.5784609656 -7.6791096617 -21.3523253575 6.1414013336
F 0.4488458060 -3.5945027801 -1.0651585931 -0.6998802882 0.4590562796 -0.9861546900
40
energy=-60383.2893512751 config_type=IL_pair name=BMIM-NTf2 Properties=species:S:1:pos:R:3:forces:R:3
C 3.2656872859 -0.3841142136 -1.2209795897 1.3649508033 0.1195118724 -0.4520644977
C 1.9524027363 0.3035140313 -0.8217418098 -0.0084661554 -0.2253280715 -2.5094392723
C 1.8912621046 0.2230811739 0.6684217639 0.9343883947 -1.2712955548 -0.2677282366
C 0.6807840287 0.8375614795 1.2891898368 -12.2625940191 -6.3846682283 -27.4292867791
N -0.5671076994 0.2679796956 0.8778944010 0.6429770787 2.3624769005 -6.0696892693
C -1.1980213438 -0.7606385212 1.4692873632 4.1129264963 9.9700692803 -17.5707243783
C -2.3847322133 -1.0412740968 0.7964428652 0.4591111568 -3.2232000236 -25.9431977245
N -2.4420045899 -0.1500511126 -0.2124893675 -4.4235154592 -0.5490925557 -2.2856251242
C -3.5432027059 -0.0934900154 -1.1789268065 -1.1599487085 0.6382416002 0.6440280783
C -1.3453554220 0.6334274319 -0.1563835037 2.0994570769 5.6765619005 -3.8908090751
H 4.0562148897 -0.1698759940 -0.4709458332 -0.1833760618 0.0827256879 -0.4002064404
H 3.1574696318 -1.4711307540 -1.2437002288 -0.1402013812 -0.3091873802 -0.1049437082
H 3.6226520065 -0.0395644559 -2.2048957351 0.0143321608 -0.1638040198 0.0041907981
H 1.1244203393 -0.2443105027 -1.3292804293 0.0780886598 0.4497393171 0.4566618019
H 1.9476847490 1.3505940832 -1.1886805008 -0.0974818014 -0.2073782746 0.2156035931
H 2.7700800694 0.7778853049 1.0583663059 -0.0920361499 -0.2141246436 -0.2126330105
H 2.0429323825 -0.8342740375 0.9674756864 -0.1108099981 0.1694541129 -0.2300926359
H 0.6886103263 1.9197770510 1.0456208593 -1.3841992940 0.4516555053 -1.2870251517
H 0.7931190077 0.7043802800 2.3910449195 -29.2490178204 -30.4302106414 -1.8681436499
H -0.8084527293 -1.2766240446 2.3464584060 -24.2831911761 -2.9441092298 11.6961019330
H -3.0780083979 -1.8153740036 1.0618870228 -3.6670747755 -6.0158928304 -8.0289676460
H -4.4843354740 -0.2444385705 -0.5888455617 0.2850397808 -0.0969719531 -0.8418789342
H -3.5612460720 0.9037243776 -1.6167944659 -0.2132845788 0.5961015590 -0.3995376094
H -3.4329945319 -0.8302367594 -1.9916280547 -0.0484475550 -0.3148848076 0.0061610209
H -1.1478583783 1.4334721727 -0.8574511415 0.1196402771 0.1548722418 -0.0736450826
O 0.3907331900 -1.9224643198 4.4576699121 1.8184181706 -5.6948837321 4.7356387030
S 0.0733265199 -0.8100144548 3.4854105587 5.5743216417 10.1818587401 24.9844751375
O -0.0910174812 -1.4062389582 2.1116079408 30.4926842271 -17.8215097491 -20.3227877973
N -1.3333570473 0.0611509198 3.9780923861 5.3853594943 4.1463305995 1.2726527595
S -2.6998301269 -0.8490971356 3.4464307099 -3.7295984062 2.8892746316 10.8545243401
O -2.7588041769 -2.1450327517 4.1671826187 -0.8514590045 -7.0175367253 3.9055343344
O -2.4803661890 -1.1082296907 1.9648433152 -12.9100983996 -1.6893716686 24.8154500372
C -4.2085586300 0.0561993272 3.6118484613 -5.5414668920 2.5961422401 0.2489431868
F -4.1728884649 1.2171699723 2.8653206001 0.2003959751 1.0753756294 -0.7554649311
F -4.4687823918 0.3917871672 4.9119641460 -0.4928221381 0.4126845477 1.7162206298
F -5.2205798214 -0.7400221285 3.1096765925 -1.9290332566 -0.7758006595 -0.5119828373
C 1.4921175302 0.2757270172 3.3966123979 8.2473816326 -9.5514972527 12.3267416826
F 1.7758963745 0.8608079482 4.6015108994 0.6014462776 0.6496890931 1.0737610433
F 1.2296446670 1.2539424532 2.4367957943 37.8048485193 52.8226315290 21.4240980146
F 2.5324079754 -0.4807609185 2.8934460019 2.5293018743 -0.5675581036 1.0707121058
40
energy=-60426.7278671150 config_type=IL_pair name=BMIM-NTf2 Properties=species:S:1:pos:R:3:forces:R:3
C 3.2213189610 1.1591787424 -0.2263390900 2.3561706267 1.9839118744 -0.7449236034
C 3.0846411173 -0.3542970395 -0.1951842008 -0.6957275551 0.6804842179 2.2231610297
C 1.6141121461 -0.6945000025 -0.4535578359 7.8833305998 8.3300289946 6.4381621120
C 0.8250452023 -0.0355742506 0.6556408546 1.8102938436 1.8156350435 0.4555714027
N -0.5879374324 -0.2632921371 0.5550327290 -0.0954758003 0.1286353453 -0.1062927200
C -1.2679355745 -1.2850102742 1.1036403120 -7.7310736384 11.2948481281 5.4190950669
C -2.6053722784 -1.1011175282 0.7468929719 -0.6742143527 -2.1413580779 1.7814260999
N -2.7118831560 0.0198089067 -0.0056566419 -1.3107018431 0.2552260949 -0.0924249314
C -3.9219856344 0.5927415451 -0.5945555498 -0.7203014604 0.2143974993 -0.6011218180
C -1.4678672770 0.5118025309 -0.1078361091 1.4769810166 5.2252586240 -3.7674686192
H 2.6236955791 1.6291375763 -1.0389558512 0.0517767880 -0.3017536538 0.3879217580
H 2.9470688519 1.6245354648 0.7442334956 0.2732604129 -0.0952255017 -0.5014467687
H 4.2926254925 1.4063874920 -0.4736676251 -0.8213640343 0.2311404316 0.5531165705
H 3.7708583025 -0.8425638195 -0.8836073414 0.2952572802 -0.3572498505 -0.2855172057
H 3.2510095985 -0.6745226712 0.8719910333 0.6826463289 -0.1157513987 -1.0464570562
H 1.3699716967 -0.2703320735 -1.4471030507 0.0775521753 0.6043906427 0.4446771352
H 1.4795924372 -1.7810694237 -0.5117088773 6.8460570604 3.5913703778 7.7986713640
H 1.1970425087 -0.3676280696 1.6391103049 -0.1582286765 -0.1324356144 0.1628175475
H 0.9982418202 1.0454439407 0.5730361980 -0.3584863269 0.4221192345 0.4176641795
H -0.8875330761 -2.1135308836 1.7131873592 -7.4576989414 7.1435975767 9.9303065029
H -3.4245382588 -1.7620467769 1.0347157123 -0.4851033173 0.6487298485 0.2555768480
H -4.7762932069 -0.0020343293 -0.2091026698 0.0725904925 0.1953135150 -0.2890767541
H -3.8260528543 0.4860757577 -1.7012324469 -0.4416614438 0.3157411741 0.3120882325
H -3.9995747812 1.6490660871 -0.2704683161 -0.2178124987 -0.0187137637 -0.3208033283
H -1.1982501842 1.4233412357 -0.6568223642 -0.1445063293 -0.3030971607 -0.0032908833
O -2.8120552120 -4.9242290405 -1.6910640637 2.4509376674 -8.4482137659 -0.2897466623
S -3.2677968606 -3.5338161079 -1.4522626261 2.3197058381 0.8397341552 -2.6465614099
O -3.6361259811 -2.9670460577 -2.8134871398 -1.9373483121 3.5546239188 -4.9446529652
N -2.1097213532 -2.5200754313 -0.7307663296 1.3771475937 3.5538104553 -0.7571855998
S -0.8125622860 -3.3987367928 -0.0145909476 -5.2881964365 -4.4728315389 -3.4771982239
O -0.3828609808 -2.6970862152 1.2402750768 17.7147472329 -13.6243820448 -1.8115399935
O -1.1430758528 -4.8324150318 0.2393695395 -1.3164161878 -7.0714820024 1.2548364039
C 0.5530727179 -3.2472275522 -1.1696708341 1.5035878548 -2.4857650973 -4.9359209589
F 0.8376169726 -1.9015038106 -1.3017478426 -12.4750532769 -10.3637280628 -15.1918780463
F 1.6760467217 -3.8646907422 -0.6806522632 1.1282263427 -0.6380798448 -0.0097689458
F 0.1427949740 -3.7274022071 -2.4022061798 0.1637500020 -0.8076997556 -0.5559085188
C -4.7579841904 -3.4758774401 -0.4766912614 -4.8497813324 -0.4357528830 2.6146947962
F -5.6527673210 -4.3251271561 -1.1254955343 -0.6350540926 -0.5441343045 -0.2201380747
F -4.5558110838 -3.9518474130 0.7969975407 -0.0702485428 -0.0605055423 1.6230944060
F -5.3137152391 -2.2162328020 -0.4934668843 -0.6074696622 1.3885772576 0.5281796889
40
energy=-60436.0958310014 config_type=IL_pair name=BMIM-NTf2 Properties=species:S:1:pos:R:3:forces:R:3
C -3.9787837550 0.3335481024 0.1347271113 -0.1830422739 1.0214127501 -1.0207710413
C -2.8793725398 -0.7078327662 0.3684677105 -1.9457889479 -1.1805634038 -1.0086576559
C -1.5587808995 -0.0701678850 0.0463167750 0.4402279389 1.0506408778 0.6934254365
C -0.4533247459 -1.0927985976 0.2735875670 -0.9427056122 -0.3970281368 0.2900513137
N 0.8525887135 -0.5280680766 -0.0237912403 0.2529767153 -0.5354342495 1.6323539917
C 1.4610911776 -0.5566032746 -1.2241653398 -4.2430474341 -6.7530941568 -0.3271062163
C 2.6797009868 0.0794629586 -1.1042241244 6.3973715848 -3.3113333808 0.5162723707
N 2.7668095849 0.4765169402 0.1843900386 4.0070989610 2.0315788107 2.4374953441
C 3.8966436953 1.2003064172 0.7834602480 -0.3619724470 2.3664472969 0.0875771785
C 1.6631150256 0.1168622439 0.8637381280 -3.3928595395 -0.4144470931 3.4904941044
H -3.6083810419 0.9536156346 -0.7326731332 -1.0257691185 -0.4976653821 0.5884507539
H -4.0758798185 1.0229985469 0.9849944156 -0.2534017859 -0.0852875540 0.1266566383
H -4.9439665169 -0.1627360839 -0.1064072248 0.2827443917 0.5318881663 0.1723339430
H -2.9430125945 -1.1175052785 1.3784453140 0.1781140109 -0.2821338636 0.3549590962
H -3.0868169945 -1.5150185499 -0.3788366055 0.3670871955 0.0720816734 0.6965718592
H -1.4098890277 0.7744742913 0.7575689605 0.1349853247 -0.0312080369 -0.6626888688
H -1.5852066815 0.2681662311 -1.0016082149 0.5238791101 0.3518926759 -0.1249000778
H -0.6101000395 -1.9315812893 -0.4249774397 0.0825120085 -0.4247120875 0.3563859797
H -0.4891716532 -1.3715871740 1.3441792249 0.2308279056 -0.5428058877 -0.2160854360
H 1.0166452296 -1.0197368655 -2.1092972591 -0.0238015199 -0.4401520140 0.4896296709
H 3.3978157662 0.2198024836 -1.8871046030 7.9890586266 -4.7154768732 2.9799482971
H 4.6462080414 1.4302409330 -0.0010815479 0.0745213325 -0.5380932706 0.1757590182
H 4.2954889310 0.7057663550 1.6738899665 0.4108300941 -0.5467158762 0.0707896333
H 3.5172594312 2.2038680744 1.1261652726 0.2825560292 -0.4854456938 -0.0559991709
H 1.4293197251 0.2880066289 1.9082555996 0.0405717842 0.1637129831 0.1589947431
O -0.2388915570 0.9013509498 -2.8250004023 -2.6692524093 -5.8440529046 1.3509084765
S 0.1028910338 2.2980954994 -3.3075973716 3.3617648596 -2.3103062275 1.4663025229
O 0.4316496300 3.2120316635 -2.1745390076 1.4680629976 5.4664972828 5.5459141118
N 1.4933598485 2.1310927258 -4.3404862800 1.3217481801 1.3757239990 -4.9933742187
S 2.7314673071 1.4234442553 -3.3681563691 -0.6861934183 4.4571476918 -9.7822798779
O 3.4414442752 0.3784338999 -4.1938416936 3.4905669655 -4.2029990495 -3.5950310214
O 2.1515726571 0.7371405030 -2.1716264062 -14.7498213176 6.2867035406 0.9021168046
C 3.9525561495 2.6173480467 -2.8959847400 3.7874491732 5.1037185046 0.9789979531
F 3.4275605925 3.6608694031 -2.1650457428 -0.5146585421 0.8949306290 0.9374287503
F 4.9295465286 1.9960572843 -2.1435078235 1.2189183261 -0.5459928687 0.6373471728
F 4.4736654997 3.1756622638 -4.0573105218 0.7764855309 0.0967191701 -0.5946879842
C -1.3068343287 2.8911828353 -4.1831570590 -5.0260512525 2.2649794223 -2.5837565706
F -2.3372736909 2.9749881847 -3.2362759280 -0.4460218813 0.3657788456 0.4969388103
F -1.7052158622 1.9540493530 -5.0892088364 -0.5886015446 -1.0346685673 -1.8100654419
F -1.1085756776 4.1264838097 -4.7469864115 -0.0912204294 1.2138609908 -0.8586582703
40
energy=-60433.5926133381 config_type=IL_pair name=BMIM-NTf2 Properties=species:S:1:pos:R:3:forces:R:3
C -3.3107783147 0.6227542515 -0.7723897222 -12.0402265375 -6.1639264633 6.3105309515
C -3.0989752387 -0.0232120825 0.5837898441 -1.0125335710 -1.3887528775 -0.1989259552
C -1.6228624247 0.1300515757 0.9282334802 -0.1457921047 0.6324648257 1.8241813170
C -0.8345076504 -0.5742507706 -0.1560364004 -1.3582158177 0.0486303472 -1.3974666134
N 0.5978012179 -0.4969602642 0.0629433045 -0.1788790370 0.3485645581 -0.7574332490
C 1.2979491043 -1.4052686364 0.7635809881 2.9101948924 -3.4896866912 2.7445218780
C 2.6468962134 -1.0378224026 0.7849734815 -2.2014397948 -2.8224227602 1.2927707341
N 2.7054219452 0.1189980159 0.0701023431 1.6200382065 0.5364033175 0.2065256857
C 3.9499146570 0.8337184561 -0.1458904291 2.5682228533 1.7406257574 -1.2458388962
C 1.4713986003 0.4402192690 -0.3618979619 -0.9269688963 2.7576639731 -1.1246099710
H -2.6322731393 1.4863878683 -0.8384358670 -9.5316367849 -0.5958522687 9.4328837811
H -3.0749395672 -0.1442324191 -1.5543915236 -0.7118955065 0.7152832442 0.4132164632
H -4.3921736590 0.8881569508 -0.8001723505 0.2527318299 -0.6549438340 -0.5684207356
H -3.3237591464 -1.1084139273 0.5366422904 -0.0595843879 0.0363522882 0.5139410984
H -3.7287151854 0.4247668512 1.3628674278 0.0416980885 0.1352961267 0.1722778132
H -1.3465375987 1.2018276843 0.9898613029 0.0388334900 -0.2260807340 -0.1173895149
H -1.4794509942 -0.3009493912 1.9177945299 0.7105704467 -0.3547111875 0.4663391931
H -1.0798709544 -0.0823855232 -1.1237928263 0.5286751762 -0.1370275542 0.2101392560
H -1.1131698841 -1.6316581002 -0.2375991922 0.0338997425 -0.3858625228 0.1130798981
H 0.8695070042 -2.2966473106 1.2428424608 -0.2433885206 0.2184278595 -0.2076357690
H 3.4667738722 -1.5632270375 1.2677555005 0.4745919638 0.1415559823 -0.0256989177
H 4.5063027327 0.3875419064 -1.0208627238 -0.2778861493 -0.0231402693 0.9925002655
H 4.5772277676 0.9255611947 0.7429916926 0.1034737752 -0.8388067860 0.5603546000
H 3.7276314065 1.8880677490 -0.4778482625 0.1969036602 -1.2284941115 0.3659659986
H 1.2211892357 1.3169760924 -0.9587051897 -0.3538472295 0.3369096162 -1.2665314619
O -1.7038549018 4.4671552237 -0.7707200893 -1.1217786305 1.1954261273 7.1959162388
S -1.3543236609 3.9386404284 -2.1351550393 2.9652727465 4.3942425427 -1.3567738372
O -1.9175890243 4.9517410155 -3.1227754344 -2.1749901565 3.0564064671 -4.7550527591
N 0.3058730087 3.8376220238 -2.2719822115 4.1789694452 2.2381095348 3.3797466977
S 1.0144222526 2.6736544890 -3.2442457813 -4.1920693342 1.4431435086 -1.2485923176
O 0.8711963173 2.9353419961 -4.7206555547 -0.1955300767 1.5418015979 -6.5079055966
O 0.6222989012 1.2427068361 -2.9461019802 -1.7334766025 -6.9822768417 2.9809202348
C 2.7798492911 2.6873844563 -2.8743893087 4.7551378172 2.2272156872 0.1036838659
F 3.2839899464 3.9475921076 -3.1562209141 0.7557496670 0.7226393410 -0.1963663953
F 3.4489532726 1.7602375430 -3.6367671861 0.6840263777 -0.9831604854 -0.2174231159
F 2.9600235123 2.4767489021 -1.5223890455 -0.6143864852 0.8807125092 0.7421996715
C -2.2711783954 2.4597516734 -2.3821504958 -4.2474249103 -2.6175101540 -4.2989054675
F -1.9665552313 1.4472244782 -1.5123143318 20.8114763585 3.8972887203 -13.7936348486
F -2.2922759471 2.0574747561 -3.7036090637 0.3003069571 -0.9360827612 -0.6207536158
F -3.6010500535 2.7765325633 -2.0640718444 -0.5941759287 0.5817006165 -0.1076857357
40
energy=-60434.6539064343 config_type=IL_pair name=BMIM-NTf2 Properties=species:S:1:pos:R:3:forces:R:3
C 3.4856202305 0.5376526707 0.1241166331 2.4585809528 0.6631135612 -0.5401806255
C 2.9043218044 -0.6613932861 0.8447267300 0.6866253393 -0.4926641118 -0.5481314507
C 1.3987975846 -0.5755971813 0.9772349789 -0.2950079022 -0.6278253303 1.2475252859
C 0.7834784570 -0.5076666209 -0.4056096205 0.6407336952 0.9052850259 -1.3926535724
N -0.6742424331 -0.4242344456 -0.2927700450 4.0763135096 -0.9231290862 -0.6289094036
C -1.5493279788 -1.4459107257 -0.2543461720 5.1364784494 -2.3688501035 4.8038673889
C -2.7879962770 -0.8654382961 -0.1444976681 -9.2984989374 5.5379632442 8.7458794781
N -2.6736721749 0.4778855808 -0.1164120820 -0.5092904950 0.1792398532 1.4788471511
C -3.7120016117 1.4868529712 -0.0100482222 -1.0031030509 1.8906827991 -1.6189471529
C -1.3496220001 0.7367663193 -0.2097688340 0.8112699780 6.4223988765 -0.1006118090
H 3.2894574613 1.4966866254 0.6282872998 -0.3284664252 -0.0202723899 -0.1969791226
H 3.2116529095 0.5596059069 -0.9477587161 -0.0926844973 0.2764846783 0.4004043316
H 4.5951743248 0.3915604690 0.1557778234 -0.5578817287 0.3746862970 -0.2109479962
H 3.3956931526 -0.7636018361 1.8165010503 0.0236619539 -0.2325399020 0.3374090304
H 3.1484358293 -1.5337071568 0.2039258647 0.0104962057 -0.1279051179 0.5643831599
H 1.0810840335 0.3486224208 1.4990550270 0.0946625906 -0.4902329386 0.4089848024
H 1.0829432825 -1.5059822210 1.4910966259 -0.4859605905 0.5358572205 0.1821447326
H 1.0627757628 -1.3717244854 -1.0300878947 -0.0897103278 -0.2722662094 -0.1349002797
H 1.1767889996 0.4299691466 -0.8864883372 -0.6016360365 -0.6969984504 -0.0308203557
H -1.3016257107 -2.4775081741 -0.3013573659 4.0701407580 -2.6751513345 4.0709254429
H -3.7411264891 -1.3708304375 -0.0860541951 -1.4398165276 0.7984601344 2.1243091692
H -3.9953963167 1.7856141202 -1.0583436863 -0.1847445245 -0.1600210281 0.6720900488
H -3.2921337514 2.3841684982 0.4778455924 -0.0396691737 -0.1112219156 0.2115166061
H -4.6071138202 1.1362762102 0.5179045303 -0.0356772139 -0.3283286589 0.1990793035
H -0.9319652686 1.7319339271 -0.2142365219 0.2834075654 0.1837305658 -0.0180879458
O -5.6099860833 -1.4530283341 -4.1984023243 -3.6186100993 0.5365557044 -6.0877152750
S -4.8128004166 -1.8121729009 -2.9744820390 2.1445691257 1.1762927496 -1.8401440229
O -4.4862964904 -0.5443495709 -2.2457595469 1.7590156846 5.8727253725 4.5623341207
N -3.4189903078 -2.6853867855 -3.4691773434 1.7068948160 -2.0265154333 -4.2054356074
S -2.3038334708 -2.9232489074 -2.1854115567 -2.5631419510 -11.2064509818 -10.7931027132
O -2.4675082053 -4.2905545330 -1.5724331531 -0.3782945928 -6.2282107899 2.8421344502
O -2.4538293165 -1.8259210971 -1.2058737992 -4.4435685871 7.9949378637 -5.4246291512
C -0.6672190859 -2.9172066355 -2.9320849338 4.7040779924 -0.0494440599 -3.0416021369
F -0.5677028745 -3.9321521201 -3.8618220353 0.1268376965 -0.8816255421 -0.7207132307
F 0.2939365536 -3.1589604305 -1.9495476352 0.5682406537 0.1781296626 0.6024023920
F -0.4232886751 -1.7230945995 -3.5756890883 0.4670033047 1.0823082128 -0.2918533153
C -5.8942895116 -2.8455421891 -1.9805099558 -3.0527230448 -3.0154665225 2.2352012326
F -7.0173226595 -2.1457457854 -1.5804064355 -0.6498702246 0.5782527308 0.8461625925
F -6.3427370963 -3.9034578777 -2.7328257693 -0.3936383653 -1.4787760720 -0.5632776062
F -5.1213660815 -3.2811942855 -0.9286858739 0.3092225648 -0.7470972653 1.8369322674
40
energy=-60441.7916028062 config_type=IL_pair name=BMIM-NTf2 Properties=species:S:1:pos:R:3:forces:R:3
C 2.0812052443 -0.7887037120 0.8439777341 -0.5580676749 -2.2973445284 2.5599520010
C 2.7017971417 0.0697250373 -0.2025085332 4.1549962466 0.0158042569 0.7573834238
C 1.8330958182 0.4420192794 -1.3413222524 2.1014717657 -0.9623813893 -3.8866163563
C 0.6241659121 1.2364149208 -1.1023897847 -0.1693080209 5.6500393774 -2.4233968512
N -0.4009286361 0.7433406649 -0.2524316029 -2.0805092537 -1.7639517799 0.0297677733
C -0.6303176590 0.8964489948 1.0726951777 1.1114223494 1.8314100285 4.3801557115
C -1.7551080945 0.2253030438 1.4606428387 1.3440361196 1.7565533300 3.5801712740
N -2.2336476762 -0.3581689645 0.3455057795 -1.2692450345 -0.8634550831 -0.8113544676
C -3.4211939675 -1.1789348183 0.2731807559 -2.4975900675 -1.8451724945 0.3186737688
C -1.4242013155 -0.0482775569 -0.6774297040 -0.0535784028 -1.1820561528 -3.2284081763
H 1.8827077176 -0.2204464961 1.7815947561 -0.2353761489 -0.3712766497 -0.5038117725
H 1.1518965277 -1.2275039224 0.4515395874 -0.0637358744 -0.1433104553 0.4049640506
H 2.7556154676 -1.6485614975 1.1407016651 -0.6884849400 0.9154435868 -0.3358579260
H 3.1554307382 0.9579611274 0.2992105638 -0.2663373847 -0.1619440842 -0.5206865214
H 3.5808427830 -0.5175874040 -0.6115325843 -0.7991180244 0.8388855010 0.0842769839
H 1.5590538372 -0.4518639194 -1.9489420014 0.1576857054 0.1404676504 0.3165657255
H 2.4905609555 1.0698035678 -2.0303070862 -1.0242659264 -0.6115564671 0.5473045450
H 0.1171386508 1.4592596089 -2.0946418505 0.3579180140 -0.4462385888 0.5142581546
H 0.9255163064 2.2694356188 -0.7353370861 -0.4044584452 -0.9948172180 0.0844025395
H 0.0278789027 1.4902440673 1.7096591752 0.1157766627 0.1364397012 0.0012301870
H -2.1799563838 0.1731588162 2.4723291178 -0.1713788624 -0.1567675235 -0.3309007394
H -4.2364055793 -0.7303123896 0.8858050213 0.2991861692 0.1730271648 -0.2731334315
H -3.7828245487 -1.2791980462 -0.7743691038 0.3451048937 -0.0037530831 0.2589694943
H -3.2300343939 -2.1837841473 0.7332331761 0.0948851552 0.3534548263 -0.5167682951
H -1.5922877483 -0.3997718733 -1.6988637593 0.2153911613 0.1552808480 -2.2794596055
O -2.5504999078 2.2240084162 -3.4338252688 4.1564134092 1.8669717289 7.7203524798
S -3.3089196691 1.7777814830 -4.6292999745 3.4980778253 0.4065125612 -2.3367862358
O -3.9396889558 2.9715370752 -5.2737892150 -3.8526991807 5.4175992299 -3.9632861468
N -2.2359710933 1.0582621811 -5.7411757718 0.7426419324 0.3703681079 -4.7939812879
S -1.2656256680 -0.1402753115 -4.9543154458 -4.3695784471 2.2781145279 -0.5270818494
O -1.5527465508 -0.2034070107 -3.4661966704 -0.8144212306 -0.1790190285 7.6916123827
O -1.4544807984 -1.4618514782 -5.5995413081 -0.3787270042 -7.2911377222 -3.9437855214
C 0.4324510852 0.4273330227 -5.0713410536 4.2312592410 1.1313007762 -0.1750955786
F 1.1838347937 -0.5571871746 -4.4302539857 1.1058784584 -0.3696363546 0.4245248464
F 0.5188481377 1.6153173794 -4.3723683110 0.6559212053 1.1754538768 0.6195908963
F 0.8437386688 0.5705064033 -6.3675648896 0.8985265007 0.3879009271 -1.2435444339
C -4.6049909201 0.6422722763 -4.2098168816 -3.9988761838 -3.9415071303 1.8041416903
F -4.1204830633 -0.5180950624 -3.6351726036 0.3930281118 -1.3787838658 0.8320490804
F -5.4601253201 1.2381158991 -3.2881726918 -0.9418832014 0.3174480115 0.5282857708
F -5.2740834892 0.2739389885 -5.3457894147 -1.3610953165 -0.3664991559 -1.3654885931
40
energy=-60436.9388877895 config_type=IL_pair name=BMIM-NTf2 Properties=species:S:1:pos:R:3:forces:R:3
C -3.2689809422 0.7135081268 0.6665171328 -1.9493852078 -2.1217180622 -1.7509422710
C -1.9872543828 0.4266457860 -0.1268576142 -0.8180870936 0.5955076538 -2.3165664338
C -1.7508089396 -1.0745847445 0.0438707381 -1.7599959839 -0.1255669556 -0.1922775997
C -0.5165496733 -1.5336727649 -0.6801913366 -0.9486674735 -1.8556120776 -0.8561879221
N 0.6644084934 -0.8516486341 -0.1869451420 -0.5902407236 0.2908991777 -1.3559076357
C 1.4448171542 -1.2937333476 0.8411085671 2.6163052558 -2.0077750731 2.7844446428
C 2.4726831307 -0.4018370590 1.0356934788 0.0529630727 -4.3725811700 2.2072667474
N 2.3000779124 0.5772092258 0.1151828012 1.0022381022 -0.3951612052 -8.0147409990
C 3.1450204408 1.7345511369 -0.0584944050 3.8633347926 1.4889902653 -2.3785092047
C 1.2100073348 0.3158840196 -0.6295890082 -0.9851294920 1.2146897224 -2.5681584543
H -3.0842302692 0.3076633980 1.6819867571 -0.6930785175 0.6432100797 -0.6833490030
H -3.5384677715 1.7742823589 0.6711417427 -0.2267564781 -0.7186629715 -0.4414644853
H -4.0592305536 0.0681850946 0.2249095492 -0.1756136923 0.6727320720 -0.1390756344
H -1.1247152299 0.9739979588 0.2861170049 -0.4002436768 0.0728576841 -0.9738406422
H -2.1558160506 0.6928958842 -1.1781517335 -0.1150798349 -0.2737012845 -0.6939103834
H -2.6196858152 -1.6401647182 -0.3498522335 0.2200200858 0.0642879023 -0.1316788197
H -1.7093925661 -1.2889552671 1.1158104641 0.3543384654 -0.0691320238 0.1926225878
H -0.4121481748 -2.6147689530 -0.4454966605 0.4975951165 0.0930397951 -0.5895709988
H -0.6617564031 -1.3555795913 -1.7656826124 0.4732257422 -0.1759383101 0.0652434001
H 1.3250058553 -2.1858167512 1.4383001584 -0.6361934782 -0.4763515648 -0.1358907430
H 3.2856711550 -0.4226894612 1.7608215925 1.0182105573 -1.2563591082 -0.4408203894
H 3.9226807841 1.7849064987 0.7324859113 -0.3903314990 -0.2914732427 -0.2989326055
H 3.7355418469 1.6842273272 -1.0158656207 -0.7378240497 -0.0557117971 0.1244807692
H 2.5647580331 2.6783628621 -0.0261755017 -0.3059717442 -0.4539450234 -0.2441831062
H 0.8183646311 0.9311316146 -1.4549414421 0.0967513165 -0.1517820062 0.2264282385
O -2.0085354940 1.0629463020 4.1159046934 -3.3356306090 -1.4557580307 6.5704001726
S -1.2830379747 1.5805037506 2.9095596370 3.1699459171 -1.4789416423 1.2208264348
O -1.3472058565 0.5105007451 1.8610282179 3.0175473405 -4.4237544669 -0.8193063501
N 0.3245606690 1.9119404030 3.3395497733 2.5686137981 1.4029201305 4.7596887873
S 1.3761423082 2.2421067562 2.0469146571 -6.2331545146 -0.6000982167 3.7430338898
O 2.3248915736 1.0761708597 1.8632970385 5.0874987970 -1.2683628001 7.9794338865
O 0.6940624248 2.4158589921 0.7204768604 -4.1036977062 2.4435458676 -6.3993414277
C 2.4197946548 3.6686550855 2.3859424854 2.2886525332 4.3699172091 1.7828240333
F 3.1814367687 3.4489689068 3.4992567872 1.1545687390 -0.2428696402 1.3641345521
F 1.6130102314 4.7666973666 2.6261867365 -0.4369063770 1.0498094829 -0.0660419339
F 3.2412918706 3.8807082864 1.3087511661 1.0883220769 1.2743950408 -1.0055821704
C -2.1822293520 3.0195190591 2.3582527870 -3.0037021023 4.2805309416 -1.5761970085
F -3.4684051262 2.5527722255 2.0524282877 -0.7531306538 2.2191726190 1.3745926119
F -1.5720873744 3.5604242630 1.2467001773 0.0186801311 0.9601783350 -0.9516568145
F -2.3168353336 3.9442293727 3.3711992922 0.0034493605 1.1408340855 0.6269063772
40
energy=-60439.7486343644 config_type=IL_pair name=BMIM-NTf2 Properties=species:S:1:pos:R:3:forces:R:3
C 4.0191222908 0.3712375244 -0.0659637721 2.8350481179 1.2858923274 -0.2328620774
C 2.8549401787 -0.1731337687 0.7102150118 -0.0476737918 -2.1160901912 0.9681563454
C 1.5335289215 -0.0248119613 -0.0324578556 0.9792384004 -0.2297722882 -0.8590414426
C 0.4915719719 -0.6185648842 0.8878561112 0.7650068619 -1.1112312482 0.2639596021
N -0.8373185046 -0.5491418680 0.3102315836 2.0595943000 0.3103757919 1.7518716398
C -1.4811852824 -1.4370456255 -0.4698268043 -3.1347796759 -2.9874148269 -2.8584250441
C -2.7235038317 -0.9225105863 -0.7658438115 0.4668280589 -3.6477415724 -1.5757756170
N -2.8173394903 0.2922179740 -0.1500130997 -1.7775634145 0.7129489313 0.0218479496
C -3.9388541447 1.2148420586 -0.1685848945 -0.2916660425 1.7265470968 -0.7451796685
C -1.6525516650 0.5114517357 0.5083489815 1.8396602812 4.9701396762 0.1918262884
H 4.7496276100 -0.4180273337 -0.3252718568 -0.3126787842 0.1303769543 -0.2493827644
H 4.5778850367 1.0852409132 0.5883116804 -0.2192462788 -0.3387572861 -0.5844218748
H 3.7382178798 0.9304474306 -0.9752199696 -0.0470608171 -0.2447292698 0.0844346223
H 2.7559462342 0.3221494133 1.6888516506 0.1781091750 -0.1652051752 -0.0248632475
H 3.0432112188 -1.2698165729 0.8823120696 -0.3403071476 0.8184042067 0.1391584795
H 1.6180265560 -0.6119645768 -0.9677918343 -0.3944177013 0.3278978004 0.0096602402
H 1.3625644469 1.0282406612 -0.2584517924 -0.3167038127 0.4087149462 -0.1682606880
H 0.5294924497 -0.1219453431 1.8728397668 -0.4238773375 0.3006970915 0.1802637535
H 0.7749112709 -1.6807750742 1.0178369529 -0.3884861527 -0.0430555493 0.2230853210
H -1.0850621348 -2.3854138536 -0.8010950501 0.4449541922 -0.4442932223 0.0578520540
H -3.5257065417 -1.3536218952 -1.3712815326 -0.0097598595 0.0607095706 0.1135577546
H -3.7570075695 1.9289211111 -1.0220527268 -0.6081012814 -0.2563518633 0.5441040846
H -4.8852039169 0.6740554000 -0.3164140643 -0.0614202368 -0.0677615123 0.0401577030
H -3.9240726446 1.7993087655 0.7891212342 -0.2524771754 -0.0468497884 -0.4651008605
H -1.4212403398 1.4086603561 1.1023832076 2.0166408958 0.1934928710 -6.7078046756
O -2.2336493153 2.2997453660 4.0653015978 -2.8216366344 0.8765954007 4.8114849713
S -1.5070369511 2.1887691339 2.7321855670 5.2858684869 2.5145089680 7.0402514786
O -1.9256447761 0.8273091310 2.1944869423 -5.0858698131 -10.1491771078 3.0286643628
N 0.1639782396 2.1691083307 2.9258923429 2.0581343740 -5.1456160645 1.3346592608
S 0.9887763273 3.5626290490 2.3870887550 -3.4887823738 0.4705840431 0.5749124041
O 0.8056974192 4.6838086435 3.3534647323 -0.3973206549 5.3327334623 5.8740785530
O 0.5591410889 4.0532206440 1.0396975564 -2.0894791149 1.3630902258 -7.5230312395
C 2.7326318525 3.2370828963 2.2512581442 5.7897185637 -0.8335471712 0.2116621682
F 3.3393215930 4.4096005346 1.8096860089 0.2219774706 0.7684263155 -0.3074476938
F 2.9782136224 2.2694461138 1.3171477604 0.4983797434 -0.7734162189 -0.7680027536
F 3.2831438002 2.9358038956 3.4800012654 0.6770208088 -0.6523201128 0.9152367679
C -2.1739489479 3.4178743715 1.6887510556 -3.2855524019 4.6635906885 -5.1959710401
F -3.5644205555 3.2338177220 1.6861701453 -1.4406729431 -0.0688773156 0.4155120750
F -1.8144689654 3.2677013037 0.3543064145 0.5698722224 0.5635893911 -0.8193111623
F -1.9398610140 4.6617408895 2.1861413026 0.5256913135 1.5295509087 0.2930153452
40
energy=-60433.8443401848 config_type=IL_pair name=BMIM-NTf2 Properties=species:S:1:pos:R:3:forces:R:3
C -2.9895322045 -1.4467690842 0.4490356490 -2.2764459619 -0.3649266966 1.1087948888
C -1.9072197275 -0.3911820234 0.4897210566 -1.3516768889 6.3340425696 -2.3278690479
C -1.9528026932 0.4978457004 -0.7349914291 -2.4679007393 0.1669908862 -0.9812175395
C -0.8469622580 1.5086618381 -0.5919543765 -1.6654871985 3.0596804573 1.0748866196
N 0.4558240647 0.8863544563 -0.5039818143 -0.2790355698 0.7750388046 -1.7908057864
C 1.2046417958 0.6211782702 -1.6019386675 2.5152075884 -1.0531791805 -2.7452824270
C 2.3895608131 0.0351165141 -1.2047054716 -0.4951247071 0.4638360141 -2.9569047346
N 2.3423522281 -0.0488034829 0.1551041627 0.7670244473 0.1636830356 1.1979525853
C 3.3761414898 -0.5996309559 1.0079661708 1.5771049105 5.2917758044 4.5534290352
C 1.1658458984 0.4720312861 0.5438105378 -0.9653939264 -0.0071519958 4.6064564411
H -3.2453506667 -1.7222027994 -0.5863376708 -0.3538516258 0.0587489751 0.2112915027
H -3.8472519270 -1.0602011866 1.0386669146 -0.2851877146 -0.3242641908 -0.8661656775
H -2.5968813639 -2.3352907581 0.9893426389 -2.0962687927 0.4253648114 -0.6714315259
H -1.9690150725 0.2519123467 1.3771518421 -0.4035893376 -0.0349799124 0.2111997837
H -0.8875473459 -0.8549483886 0.4957519754 -1.2838899014 5.2000604846 -2.4527560813
H -2.9245232664 1.0357483366 -0.7911203665 0.3326125632 0.2102170295 -0.2166942680
H -1.8748176958 -0.0864831219 -1.6755729347 0.2271015128 0.1038072881 0.2464298715
H -0.9926573963 2.0367083184 0.3850818702 0.0279316200 -0.0778493471 -0.4731955176
H -0.8774395432 2.2884476006 -1.3843672313 0.5283036374 -0.3008768913 -0.0183949765
H 0.9474588039 0.8212709158 -2.6228465015 -0.7394222489 0.4143913206 -0.7807770740
H 3.2155002473 -0.3031602160 -1.8283160894 0.2208056480 -0.1038775678 0.0748281186
H 3.6805594157 0.1143043681 1.8008908833 -1.1900721866 0.2892366272 0.2232686119
H 4.3036704684 -0.7465303239 0.3908301032 -2.1047243569 3.1419835564 2.0676766178
H 3.0256313467 -1.5356333600 1.4745333195 -1.7733409841 -0.6305947675 0.1280757357
H 0.8048145888 0.5612557495 1.5686212106 0.1676485983 -0.0368568431 0.3575304123
O 0.8653012329 -5.2610132731 1.2158343543 1.0035867790 -7.6831035198 -3.1339225774
S 0.6469174445 -3.8332500668 1.5689906671 4.5380389425 -0.2123926189 2.1468465795
O 0.2923023187 -3.7514326068 3.0278105953 -2.1823030365 1.6158278037 6.6404472704
N 2.0247426282 -2.8508690953 1.2594383736 0.2273114119 5.6237201807 0.2905203591
S 3.3548278823 -3.7461236348 0.6468407821 -4.7643638960 -3.6825837194 0.2738849537
O 3.8235669758 -4.8070915306 1.5966076354 2.9388026541 -4.2202222742 5.3162228649
O 3.0263210400 -4.4029502825 -0.6717126662 -1.3827489751 -1.8814678856 -6.4917429315
C 4.6699608616 -2.5837306975 0.3451504621 4.6202587135 1.2779149790 0.0606608451
F 5.7981287676 -3.1931065363 -0.1521390584 0.8068669377 -0.1980293792 -0.5784501247
F 4.9695311216 -1.9791617628 1.5421756653 2.5583797922 -0.2193646404 1.8334568588
F 4.2188952376 -1.6136109315 -0.5194104279 2.3588901886 -3.2849587124 -7.8883592513
C -0.7168444220 -3.1566635885 0.6464848701 -1.8371490229 -0.6630042295 -4.3357130089
F -0.9725928152 -1.8723903942 1.0283601508 5.9605723254 -9.2727319661 6.4775512679
F -0.4166860558 -3.1497126503 -0.7177279526 -0.1861365205 0.2964087884 -0.7163592853
F -1.8363253406 -3.9283759767 0.8435603687 -1.2917138422 -0.6629852674 0.3329784305
40
energy=-60441.4520852633 config_type=IL_pair name=BMIM-NTf2 Properties=species:S:1:pos:R:3:forces:R:3
C -3.2981305806 -0.2479486612 -0.8916267342 -1.4155151648 1.2528365342 -1.1048563158
C -2.1380335113 0.4712837407 -0.2309748009 0.6588297202 -0.1029675619 -1.7171736669
C -1.6947740190 -0.3333874100 0.9498568288 -0.6541849983 -1.9427545146 0.8688747654
C -0.5422863574 0.3754803183 1.6196040378 -0.5346982292 -0.1447100800 3.2966570662
N 0.5620812082 0.5179564980 0.6952125250 -0.0294580293 -1.1016259590 1.5623818019
C 0.8480224324 1.5129298438 -0.1655127336 1.4795551959 2.9416752505 -2.9253197325
C 2.0266019232 1.1996524771 -0.8502434958 -2.6209790432 3.3590240127 -0.2144824185
N 2.4198982175 0.0064005548 -0.3726441665 1.6742154481 -2.2928321563 0.2017138851
C 3.6094613077 -0.7556983236 -0.7745580810 2.0655638211 -0.2802946494 0.8436019220
C 1.5301343387 -0.4166068746 0.5720292034 1.1095345523 -2.8079922648 0.7387630539
H -3.7861360563 0.5092722681 -1.5476832394 -0.0966500731 -0.7328076308 0.0520533234
H -4.0205034160 -0.5409263789 -0.1165445480 -0.1191778864 -0.2769018222 -0.2114217342
H -2.9846361725 -1.0939575779 -1.5034283472 0.1054800261 -0.4842581229 -0.0783853542
H -2.4823397612 1.4511940238 0.0935731718 0.0932058668 0.6486264646 0.1351955877
H -1.2733724859 0.5682782205 -0.9417959840 -0.8903503187 0.2038252241 0.3737643459
H -1.3682584714 -1.3654784168 0.6459245114 -0.2384084581 0.7390711081 0.1286914700
H -2.5564999634 -0.4566466537 1.6472703373 0.5848039782 0.0914512213 -0.0154649301
H -0.2202463532 -0.2032047218 2.5357925318 0.1809904775 0.4888194412 -0.8068139421
H -0.8154439877 1.3847187728 1.9641293132 -0.2090152633 0.2395477468 -0.0182959818
H 0.2389891654 2.3921981143 -0.2769357532 -0.5064165554 0.6442425417 0.0377191852
H 2.5139694670 1.8008245000 -1.6073229876 0.4775257426 -0.0101425303 -0.4070229537
H 3.3671348000 -1.8276546281 -0.9217891052 -0.2331018546 0.2780237829 -0.4554933073
H 4.0451210830 -0.2627783079 -1.6683643913 -0.2615963677 -0.5967121641 -0.0283050412
H 4.3837149024 -0.7174457516 0.0443025363 -0.5491501553 0.1352574862 -0.3465031030
H 1.6355322902 -1.3557432451 1.1017293711 -0.1852935331 -0.3595533743 0.3213126990
O 0.9039176409 -3.9183812798 -2.8371243371 -0.2102890518 -8.0011528948 3.2210412842
S 0.6977267942 -2.5627882393 -3.4219116117 4.1059433653 -0.1571836411 -2.1921663380
O 0.9990234649 -1.5454644049 -2.3822523289 1.1579187239 6.7841856288 5.8779116077
N 1.6989591028 -2.3927893352 -4.8299779224 -1.3800435846 3.1184694674 -4.1830171992
S 3.1834585948 -3.2552574150 -4.5655839282 -4.3150968071 -1.0490598016 -2.3964413276
O 3.5102686906 -4.1048953762 -5.7856636877 1.6175993330 -2.3598834143 -5.5808988537
O 3.1197058746 -4.1842238667 -3.4087099708 0.5515542059 -4.8464513505 7.7675154250
C 4.4397078786 -2.0086770929 -4.3526385649 3.0979870904 3.6710660296 -0.6056397163
F 4.4385557092 -1.2753073666 -5.5393081400 0.4578873005 0.9643840392 -0.2617754175
F 5.6758654994 -2.5861003234 -4.1764260616 1.3423273016 -0.0538286048 0.4642154843
F 4.0701878610 -1.2297541510 -3.2752418988 0.3939016042 1.2212620734 0.6652949015
C -0.9932056937 -2.4103485691 -4.0132703365 -3.8763304825 -0.8298768818 -2.7932971082
F -1.1837860759 -3.4359378631 -4.9351190891 -0.5086776570 -0.6452195548 -0.6609232830
F -1.1970007684 -1.2237494589 -4.6356334463 -0.9018766332 2.1622830227 -0.8590293060
F -1.8525369247 -2.6088107803 -2.9634582912 -1.4247609271 0.1398892996 1.3093152749
40
energy=-60437.5291349686 config_type=IL_pair name=BMIM-NTf2 Properties=species:S:1:pos:R:3:forces:R:3
C 3.8719344241 0.8922384134 0.4088232751 -0.4299014929 2.5879014671 -0.4167734989
C 2.9590032903 -0.2771275097 0.1787653077 0.0138752893 -0.7709100794 -0.2602921951
C 1.5135360861 0.2114003179 0.3135976127 0.2246726708 -0.6067371081 -0.9050650280
C 0.6346576746 -1.0190557148 0.0701472160 0.6757973740 0.0454574196 0.3715192004
N -0.7684270835 -0.6361738823 0.1815423904 2.5283401875 -2.2133235206 -1.9083327084
C -1.5229941484 -0.6488561592 1.2980628093 -1.0410444620 -2.2453271048 0.4781334594
C -2.7820556233 -0.1993460641 0.8861075271 -2.0384542035 -4.8152331284 -1.9815136643
N -2.7514789480 0.0646993008 -0.4328977428 0.4409603358 0.1833012204 -0.9904365141
C -3.8816622591 0.5573476067 -1.2334715936 -0.5307968665 1.4183617599 0.0864666324
C -1.4998665354 -0.2065083491 -0.8723504508 0.0520608469 1.1332001341 -4.3206522193
H 3.4846701253 1.4592279068 1.2985245195 0.8707990417 -0.4671120150 -0.4556342577
H 3.7111830561 1.5768762062 -0.4692336013 0.6748760550 -0.3033958106 0.7437940387
H 4.9230456207 0.6232012627 0.5064951728 0.4092649984 0.0441913134 0.1101741524
H 3.1844587376 -1.0711924020 0.8943262654 -0.1599717932 -0.3887616172 0.3384634969
H 3.0813045759 -0.6982015323 -0.8295023650 0.2737200917 -0.0932518740 -0.1003619959
H 1.3288202677 0.6514073964 1.3084038293 0.1090038697 0.0473693369 -0.3448248095
H 1.2641585087 0.8949647965 -0.5214664648 0.2863470806 0.4335902189 0.6283337598
H 0.8679000898 -1.3809992394 -0.9473007648 -0.3431710582 -0.4951950135 0.1250524368
H 0.8481443667 -1.7582944043 0.8526458631 -0.0304677871 -0.6131705881 -0.0892415197
H -1.2251985075 -0.9416849266 2.2969337865 -0.0320173654 -4.5951078535 0.1109140434
H -3.6522903486 -0.0724955462 1.4899485216 0.0252736028 -3.5052564275 -2.0219510778
H -3.4970768420 0.8323472101 -2.2264201447 -0.2132596751 -0.1410342387 -0.2440340994
H -4.3156115955 1.4787373353 -0.7465061936 0.3188816758 -0.7339293572 -0.3356175376
H -4.6380955375 -0.2309977733 -1.2619390764 -0.4843284737 -0.2487495732 -0.3595386479
H -1.1380593949 -0.1015142496 -1.8858501233 0.1027434614 0.0393084948 -0.3457607346
O -0.0478033850 2.2508923993 1.1092901441 2.4708844510 2.3720870474 -4.3996850191
S -0.6745943582 1.8425735378 2.4364528212 -0.1782343798 8.2781870299 -0.7234459624
O -1.3378064616 0.5373708547 2.1918177303 -3.6672683725 -2.2879005608 5.1260771344
N -1.7207607383 3.0847765528 2.9700696443 1.2872390638 3.7054170062 -1.9008359250
S -3.0227937554 2.5574257332 3.9298043555 2.6451729229 2.2206575143 2.0331822339
O -3.5862688134 3.7809609911 4.6402911464 -2.5305441067 5.3816277221 1.5710655124
O -2.6524083845 1.5856863428 5.0030059448 2.1650159249 -6.2167411868 4.6030731334
C -4.3444687268 1.9263381082 2.9182246680 -5.3979220207 -0.2728691858 -2.2624021266
F -3.9173162348 0.8617998141 2.1607436191 -2.4792808850 3.5432938597 3.5245912736
F -4.7919084171 2.9023033722 2.0586757016 -0.4216908729 1.0186015267 -1.2494272023
F -5.4327191853 1.5610229594 3.6853743513 -0.7766671409 -0.6465385698 0.7332384637
C 0.6932674203 1.6544626774 3.5846853974 3.9905612679 -0.2647250287 3.9328187731
F 1.4135224216 2.8286746956 3.6762737282 0.6844113504 0.8283791401 -0.1386031426
F 0.2508679470 1.3285723616 4.8370464791 -0.4862454749 -0.4857360775 1.6147953254
F 1.5135867568 0.6317027161 3.1333699274 0.9903942393 -0.8688625663 -0.3873752756
40
energy=-60427.6923942733 config_type=IL_pair name=BMIM-NTf2 Properties=species:S:1:pos:R:3:forces:R:3
C -3.9918461987 0.1392510528 0.7423030805 -4.8610695039 -1.5080718571 1.6396225809
C -2.9106172322 -0.3144260004 -0.1759365673 0.6176657909 -1.1948822902 -2.2506736378
C -1.5140767312 -0.0542309318 0.4086152758 4.5161378496 -6.7810953568 -4.4559352419
C -0.5529099588 -0.5635077076 -0.6289267645 -1.3259623371 -3.6369725760 -1.8018463719
N 0.8295591576 -0.3964784849 -0.2394736028 -1.1306256749 -0.1570793461 -0.7658983178
C 1.5543170705 -1.3132974856 0.4495049421 0.9516958259 -3.1461528416 2.1490081486
C 2.7965128898 -0.7917208376 0.6201280697 0.8890271976 -5.0531387311 3.0323316880
N 2.7976800946 0.4121439917 0.0394320512 2.0644088010 2.4484896823 0.7235025444
C 3.9225616170 1.3315930731 -0.0218572511 2.0703717986 0.6598231605 -0.4911226123
C 1.5994886663 0.6787988986 -0.4966995508 5.2634525017 -11.2520931912 -2.4488888183
H -4.7954832315 -0.6256749452 0.7347666344 -0.3937767482 -0.0013281819 -0.2401368620
H -4.4877848090 1.0823020440 0.4073628140 0.3575613260 -0.4738284307 0.3233212847
H -3.6589534416 0.2342898353 1.8041785645 -1.1284329123 -0.7634677089 -0.8104881486
H -3.0259327532 0.2309309884 -1.1307215490 0.2164870948 -0.0940572851 -0.0880410221
H -3.0178975990 -1.3794685731 -0.4259822723 -0.1069018406 -0.3229393049 -0.0919697048
H -1.3945778582 -0.5817043314 1.3749306251 0.4180774028 -0.0354789413 -0.4341005186
H -1.3583195224 1.0224093988 0.5743812697 3.4431129596 -2.5562119146 -2.1440555867
H -0.7910427360 -0.0895307664 -1.6005592273 0.5348653614 0.1656899175 0.0203588251
H -0.7475987896 -1.6579773218 -0.7452472190 0.7256129191 0.0939010507 -0.5398294071
H 1.1685638842 -2.2841277350 0.7869361095 -0.0890404536 0.2639048735 -0.0529435767
H 3.6150455306 -1.3057438629 1.1465621373 0.0574401781 0.6670164164 -0.1338185676
H 4.3941762347 1.2219692862 -1.0237105268 -0.0580879909 0.5719086580 0.1130788420
H 3.5782512995 2.3672479112 0.1843458579 0.0248928585 -0.1280300052 -0.1666492111
H 4.7105857440 1.0732060390 0.7224427268 -0.5487505922 -0.0888275007 -0.0758516305
H 1.2802986728 1.5637464646 -1.0323802582 8.2609398403 -11.8805747241 -9.7495395941
O 0.2504943097 1.5746809139 1.5032071548 0.8756151848 -5.2172364236 5.4288011543
S 0.2863948839 2.7216724623 0.5531695847 -7.5662939299 2.6227188361 1.6104303768
O 0.8705933781 2.2319288949 -0.7211136963 -10.4353548699 23.5229550411 -0.4328649958
N -1.3110958681 3.3462267702 0.2235697282 0.0068761780 4.0012335168 -5.3926992614
S -2.3459354254 2.6630113766 1.3974650782 2.3635145237 1.5143579770 2.9398477067
O -2.3514809631 1.1747147672 1.2011336248 -5.4686217988 4.9071295998 6.4524943936
O -1.6936532811 2.9153165804 2.7367239780 2.4979007861 2.3095453695 6.4311438492
C -3.9675446411 3.3375678297 1.4174882427 -5.5943541576 3.5371675448 -1.3758666295
F -4.5840114030 3.1458085774 0.1927808724 -0.8271942918 0.2958253903 -1.2554758872
F -3.8791172163 4.6767909568 1.7430712716 -0.6532305112 1.2731246198 0.3274763360
F -4.7109743243 2.6425530442 2.3341398403 -0.7231514755 -0.4570448519 1.4369443767
C 1.2693916937 4.0107185232 1.2616892579 3.0078856757 4.3667288258 2.4868559360
F 1.3519185078 5.0601336667 0.3758873728 0.3926125714 1.1771286751 -0.3794452980
F 2.5175157440 3.4889809037 1.5508632248 1.4560662237 -0.0673547702 0.1947110940
F 0.6616351612 4.3889987370 2.4541018720 -0.0975700838 0.4222854476 0.2737937866
40
energy=-60440.9951345345 config_type=IL_pair name=BMIM-NTf2 Properties=species:S:1:pos:R:3:forces:R:3
C 3.7906279633 -0.9397787017 -0.5642023639 1.3908773831 -1.7647756796 -0.6770016497
C 3.0065912017 0.2914719355 -0.2070554658 -0.1774956347 1.3039020724 1.6147112902
C 1.5433900245 -0.1369237503 -0.0933910683 0.7146977419 -1.6278378104 -1.4001767149
C 0.6495839326 1.0093020644 0.2614912759 2.3497327949 0.8531306776 -3.3984038628
N -0.7018062528 0.5596115184 0.3554409779 -0.1768878721 0.2646560683 0.6139431972
C -1.2804535364 0.1001026614 1.4808154124 -1.4245896627 -2.1342375548 3.3844783992
C -2.5910376706 -0.2402735249 1.1828859191 -0.7765795212 -2.0641553585 1.2621810185
N -2.7909568220 0.0192708305 -0.1285926254 -1.6463297823 -0.4694757122 0.1744310521
C -4.0450319763 -0.1975073267 -0.8563359053 -0.7183816312 0.1853972214 -0.7944351552
C -1.6414506036 0.5001182026 -0.6082820540 0.8173898622 1.9007494792 -5.9890777062
H 3.3119790655 -1.8441467410 -0.1275919171 0.2174722903 0.3705892500 -0.1858337420
H 3.7755589411 -1.0586290416 -1.6704372239 0.4199463949 -0.1890936332 0.4842825611
H 4.8290279361 -0.9212656187 -0.1627455296 -0.3110606710 0.1267882608 -0.5983800822
H 3.2815149039 0.6315843859 0.8176797264 0.2521474686 0.2373644414 -0.5621585873
H 3.1447536695 1.1189506410 -0.9295044647 0.0462571126 -0.1419895890 0.2102980286
H 1.5382130749 -0.9594060167 0.6309736697 -0.5042230469 0.0073031322 0.3752972762
H 1.2681328651 -0.5687803653 -1.0721017604 -0.3215791342 -0.1140284719 0.0558383597
H 1.0171467326 1.5437589609 1.1489934632 -0.6797850862 -0.0158712597 0.1848405582
H 0.7190068149 1.7399461041 -0.5798417486 -0.3167289006 -0.1866900136 0.2993913220
H -0.8671657475 -0.0142606708 2.4761641979 1.5882117323 -0.0649842663 0.0016108940
H -3.3607457609 -0.6389208646 1.8157343906 -0.5231423298 -0.4897465731 0.3890743392
H -3.8178090783 -0.9124873528 -1.6590080508 -0.3147484641 0.1085301634 -0.5636803891
H -4.7883032766 -0.6438436852 -0.1939215102 -0.1287511069 -0.2763115192 0.5120600373
H -4.4668379394 0.7664760456 -1.2117249270 0.2776210568 -0.2230585989 -0.3055985082
H -1.5239284615 0.7956303100 -1.6587104526 0.2280999187 0.0402332089 0.2776385040
O 0.6256172100 1.0842984619 2.8397332526 1.3014093419 -6.8102145962 1.2121758611
S 0.5612919019 2.5931431902 2.9094239315 -4.9605309616 -0.7103757826 1.0150388094
O 0.6863425260 3.1200533987 1.5268868849 1.3682216759 4.5912788700 -7.1256589630
N -0.8663502230 3.0574230286 3.7125297958 -0.0818322687 3.2832661658 6.4267052190
S -2.2914914689 2.7541788281 2.8376011789 4.5483037695 1.6788942515 -0.0251893767
O -2.3807509123 3.4237655809 1.5176358387 -0.8970669669 4.4297148611 -7.0967271919
O -2.4212198492 1.2693542276 2.6096995305 -1.7893852370 -7.1993338539 0.7060705677
C -3.6774670504 3.2319681968 3.8749694971 -4.0375377186 1.8001375229 4.1163942485
F -4.8774537302 3.0011836989 3.1977972990 -0.2871014109 0.0818717496 -0.3351521340
F -3.5799153492 4.5582022914 4.2526081514 -0.2667070621 1.1467717412 0.0441002298
F -3.6903190320 2.4851331742 5.0368882253 -0.1429454086 -0.8298241323 0.9502555047
C 1.9440859826 3.1637053431 3.8832046578 4.0585833826 2.1016785657 4.1222591593
F 1.9228987472 2.6089807120 5.1452507993 0.0139342027 -0.7352022775 1.3113156439
F 1.8354341920 4.5284217344 4.0456837626 0.4323413129 1.4262359369 -0.1193217701
F 3.1567410111 2.8021860228 3.3031605811 0.4587839181 0.1031063215 -0.5740870133
40
energy=-60408.0724244558 config_type=IL_pair name=BMIM-NTf2 Properties=species:S:1:pos:R:3:forces:R:3
C -3.0363620821 -0.6264722681 0.2298368198 -2.5784604874 -1.8409660170 -1.1169681211
C -2.1405113119 0.3137734231 0.9618547752 1.5313327444 0.2671050979 1.8841651365
C -1.5817104230 1.4077631684 0.0562135786 -0.1571563909 2.7745553705 2.2968380644
C -0.7756653728 0.8188151876 -1.0755539308 -27.2918972420 -12.1692799586 25.2320558822
N 0.3408867145 0.0473338724 -0.6247633464 2.8185751148 -5.6880768298 3.9298305076
C 0.4557809446 -1.2572425496 -0.3271828402 0.5079753956 -5.0017088443 1.7194262475
C 1.7423826005 -1.5607590877 0.0723287629 -1.4790356763 -2.7085265313 0.1624420529
N 2.4183193087 -0.3920678945 0.0099211827 2.9282847861 -0.8420797541 1.1280600410
C 3.8280114840 -0.1742936353 0.3348141976 1.5772197205 1.6639551848 0.5792372241
C 1.5689453668 0.5642651630 -0.4088089435 2.0596659217 5.0060059632 1.2419839136
H -3.3071991259 -0.2033342254 -0.7703055813 0.2075624486 -0.6089527224 0.5208961881
H -3.9900924201 -0.7367057606 0.7859605163 0.1924609358 0.0086980665 -0.2294390166
H -2.6467861759 -1.6670059207 0.1358873528 0.0693596963 0.7030229861 -0.2751959338
H -1.2712533556 -0.2080950796 1.3942780418 -0.1445268310 -0.1897811528 0.2189871368
H -2.6833757722 0.7787332625 1.8077601228 0.1835747787 0.1299305176 -0.1997040384
H -0.9687135371 2.0973754150 0.6569976855 0.0799824195 0.1271760751 0.0859432123
H -2.4475378698 1.9889490838 -0.3193908197 0.4873376110 -0.0511208370 -0.3086193876
H -1.3913104988 0.2356621915 -1.7737261357 -5.5876173369 -3.2135027144 3.8571995236
H -0.4244840713 1.7074366618 -1.6716685893 0.6652669664 4.4126482208 31.0841596616
H -0.3247631055 -1.9712496744 -0.3854870518 -1.3079102268 -0.6744933589 -0.3651257838
H 2.1390287059 -2.5391955318 0.3769040415 0.1997607162 0.3957008439 -0.0784862134
H 3.9304276661 0.2033631508 1.3834307503 0.0681321296 -0.5354436790 -0.2240223923
H 4.2582750129 0.6420477214 -0.2997560478 -0.4935532892 -0.3827758728 -0.0058768016
H 4.4447919492 -1.0680349208 0.1559868432 -0.2561689245 -0.3159078336 0.2174316953
H 1.8629153687 1.5989382473 -0.5438663807 -0.2076737823 0.9688233192 -0.3551715328
O -0.0688691539 0.8914863669 -1.9660781370 42.4176725056 -24.6555809041 -29.2127418638
S -0.6109108251 2.1725430430 -2.5134971832 -9.8485391354 32.5387931591 -38.2049286894
O -0.6201240927 3.2687038133 -1.4762845326 -0.7561014144 10.1494984820 5.5687995782
N 0.4846484036 2.7113511243 -3.7385912231 -1.5636104047 -1.7210914439 -5.3107996466
S 1.9038103144 3.2862524132 -2.9221082044 -3.5607730581 0.9729530732 -0.7312156204
O 1.6831082793 3.5115541486 -1.4682258839 -0.1243049620 -0.1248286651 8.6726116468
O 2.3403919352 4.5432848439 -3.5783093086 2.6605193157 6.3622983918 -4.5909588210
C 3.1373362610 2.0199001617 -3.0870944541 3.9736205940 -3.9037030389 -1.8925145133
F 3.4281478267 1.7680509615 -4.4258655826 0.5352731979 -0.0616449489 -0.7482273852
F 2.6975168623 0.8419593032 -2.5482380700 -0.2875190555 -1.8933974132 0.5756907024
F 4.2687473838 2.4403214164 -2.4167120614 1.2802132433 0.1133215622 0.5531516093
C -2.2513700728 1.9810331545 -3.1497410860 -5.6916324206 0.0118583999 -4.0969251316
F -2.2763347207 1.0587894107 -4.1685141297 -0.5282396984 -0.9205119161 -1.2826569684
F -3.0392631737 1.5086276606 -2.1120692321 -1.4995425751 -0.1618405236 0.3098098485
F -2.7134740212 3.2115168757 -3.5508463133 -1.0837204543 1.0450689247 -0.6208345349
40
energy=-60435.6907246107 config_type=IL_pair name=BMIM-NTf2 Properties=species:S:1:pos:R:3:forces:R:3
C 3.3195613698 -0.6204184086 0.5260944008 2.3708225585 -1.5607968465 0.8256959739
C 3.0058701096 0.2576138230 -0.6513251350 0.7758281513 0.8160268608 -1.0812931132
C 1.5523928837 0.7049046750 -0.5318520527 0.6778323694 1.8437536004 -2.2804467607
C 0.6989940952 -0.5230524499 -0.5343462993 2.2256565873 -1.0143620427 0.9846518071
N -0.7132267547 -0.2203680060 -0.4246813379 2.6290127560 4.7488902478 7.7938785545
C -1.5800533156 0.0018489467 -1.4238960188 -4.8666507495 8.0513558454 -2.6514976732
C -2.8208394178 0.2513337379 -0.8454338215 -0.3822862450 1.7580984219 -2.3333982741
N -2.6356634878 0.1656745833 0.4858772767 -0.9709104461 0.4463609569 3.1464302377
C -3.6312199454 0.3453931914 1.5467902409 -0.8129231757 -1.4834086918 0.4577529208
C -1.3502221038 -0.1229241631 0.7691927208 1.7195238614 -0.0636240078 1.7574447559
H 4.4386186606 -0.6830280695 0.6233237625 -0.9059724701 0.1218181637 0.4790982021
H 2.8449388471 -0.2512424593 1.4570700569 0.3675157145 -0.3443984053 -0.1672440421
H 3.0114819653 -1.6551912776 0.2676949476 -0.1280908160 0.3147394165 0.6844114453
H 3.6753825624 1.1464161685 -0.7176599600 -0.2949522241 -0.3772613744 0.1272579198
H 3.1572718302 -0.3482137915 -1.5678187403 -0.0854296273 0.4182623119 0.0064367675
H 1.3326222288 1.2518775367 -1.4829673067 -0.2451748423 0.3556822879 0.9139147598
H 1.4417416693 1.3307792476 0.3553152479 -0.3604452521 0.3360665915 0.1977703568
H 1.0299321890 -1.1717548377 0.3020419274 -0.7502171562 0.0355289119 -0.0673138291
H 0.8861998672 -1.0808115799 -1.4706429185 0.5057611459 0.4241423637 -0.0146175011
H -1.3693883502 -0.0074264261 -2.4907711381 -0.5499077853 2.8614684130 -1.0105888440
H -3.7648202193 0.4731543350 -1.3418665984 -0.2114359329 0.7501064160 0.1778893545
H -3.8324423447 -0.6628423840 1.9677300949 -0.2745118973 0.1511297059 0.0480734801
H -4.5408507375 0.7152066924 1.0702411790 -0.4140250360 0.4873663548 0.1822429022
H -3.2461031918 0.9548224402 2.3671082691 0.0511586120 0.7069763221 0.0850292345
H -0.9101784096 -0.2517515246 1.7447812029 0.2104683140 -0.0983709161 0.5202113208
O -4.2443041909 -1.7616805237 -4.4068183678 -1.5032598241 1.3505434551 -5.4729697530
S -4.1849415858 -2.1451885680 -2.9344820524 4.3905717835 -1.5203575831 -3.4321990204
O -3.7213977346 -0.9742915765 -2.0911215748 0.5874250173 4.5245762680 3.4884024753
N -3.0687511011 -3.4727983948 -2.6955727032 -1.8699556766 -4.6430230785 3.8524611466
S -1.5801158538 -3.1082330258 -3.4454459308 -4.5647914804 -1.2133806780 -2.3344046762
O -1.8062608310 -2.0018729046 -4.4397152010 -0.1446821585 6.5250384843 -3.8715912824
O -1.0300161411 -4.2632734152 -4.2317939181 3.1422891407 -6.5316003645 -2.3623592624
C -0.3884667254 -2.5003944153 -2.2531388771 2.8397969092 -1.8512866651 1.2769873887
F -0.1183675510 -3.3934004273 -1.2631008983 0.9524742200 -0.8143376957 1.5803381443
F -0.9632051388 -1.3774116313 -1.6780954836 0.5323609943 -12.8300671320 -4.0498843651
F 0.7454811545 -2.0597955606 -2.8925082015 1.8468494888 0.5700383332 -0.1143941806
C -5.7736807237 -2.7300422638 -2.3910730703 -4.1560811467 -2.3570433032 1.1227190806
F -6.7107602962 -1.7313122256 -2.5502874101 -0.9921708778 0.8805308791 0.3344716708
F -5.6538463918 -3.1464610045 -1.0917115456 -0.6136909678 -0.4955991282 1.7350967163
F -6.1245822727 -3.7755058574 -3.2140302045 -0.7317831502 -1.3002910323 -0.5334047859
40
energy=-60431.2367280105 config_type=IL_pair name=BMIM-NTf2 Properties=species:S:1:pos:R:3:forces:R:3
C 3.9793853343 0.5482041047 0.0001504708 6.6075031941 1.7352872540 3.5203797640
C 2.8779670651 -0.2968322385 0.6014965434 1.0318298890 -1.2401175180 3.1979046759
C 1.5234504154 0.0234558629 0.0091872272 -4.8767064793 -0.7580161728 4.3846754117
C 0.4946740345 -0.8582036885 0.6619079720 -1.3357288630 -0.4822868185 3.1679079069
N -0.8486010012 -0.5952796279 0.1282108254 3.2190359900 -1.1185089957 3.7846376895
C -1.4390767603 -1.1916728220 -0.9257629102 -1.9549262855 -2.3886462107 -3.0049753201
C -2.6886205072 -0.6233020929 -1.0495627741 0.4209767164 -2.6664804547 -2.5578104207
N -2.8017824362 0.2883847906 -0.0707953374 -2.0488556260 2.3686545710 0.8940119947
C -3.9295764570 1.1603438437 0.2306054913 -1.2112444483 1.6063826735 -0.0221960572
C -1.6677273879 0.3225184388 0.6745059652 0.0877237616 1.6244053626 1.8978227878
H 3.9450856878 1.5987398013 0.3434112094 0.0106474562 -0.1607954786 -0.0696899879
H 3.9745323110 0.4578226286 -1.1159336574 2.6735322005 0.7362409140 2.1764677893
H 4.9332952189 0.0838165924 0.3346183135 0.0365147508 0.6663537898 0.6707920145
H 2.8845876951 -0.1284471071 1.6910728254 -0.0403311394 -0.3808436318 0.3335716527
H 3.1758031650 -1.3457918494 0.4002018596 -0.5646121554 0.0541808156 0.3045008812
H 1.2587503794 1.0738090131 0.0893952874 -0.1226996556 0.5571379758 0.4637193155
H 1.5923487896 -0.2826892661 -1.0671440257 -4.2033781874 -3.0670688882 3.1861037490
H 0.6992967165 -1.9237828138 0.5103129456 0.3558732826 -0.3688520545 -0.0826503644
H 0.5172271031 -0.6248095387 1.7575009340 -0.7589528300 -0.5716981089 -0.2972077653
H -0.9839892421 -1.9761314942 -1.5452536716 0.0992138357 0.1259293244 0.2535413586
H -3.4413469826 -0.8593464603 -1.7898332136 -0.5657658062 0.1358337256 -0.2013231649
H -3.5894769937 2.2251417747 0.3018208760 -0.0128089465 -0.5187902684 0.0204627970
H -4.6920780999 1.1211952168 -0.5791001221 0.1777639545 -0.3272555549 0.4278585626
H -4.3218623074 0.8517459530 1.2129947301 -0.5379228134 0.0894471145 0.0357059621
H -1.4522657403 0.9511109788 1.5320705938 -0.0440373107 0.1599380178 0.1907418432
O 4.2971157470 -0.7265958050 -3.6191754030 -0.4492973298 -6.9549308759 2.2575579511
S 4.5762245328 0.7433882663 -3.8081475233 -3.8460347403 -0.7269242496 -1.3132729273
O 4.6944790743 0.9586611390 -5.2918505195 1.1529697214 2.4876609893 -6.8950004855
N 3.2990058232 1.7387996473 -3.2063592883 -1.0196166785 6.5808123329 1.0683529629
S 2.1212510982 0.6815448602 -2.5260497437 4.2740237265 2.6244380023 -9.3211975825
O 1.9189594762 -0.4140385216 -3.5341574321 -2.6776246019 -5.1517225872 -4.7351058459
O 2.6902996641 0.0723086572 -1.2778577095 5.7276392513 -2.5591337305 -7.3657984801
C 0.5774373072 1.4871652309 -2.2054302613 -5.2881737458 2.6765059477 0.3679397342
F -0.2610563849 0.5144807041 -1.6633279749 -0.6597125701 0.4856889951 -0.8248734742
F 0.6860515112 2.5245530889 -1.3380593588 -0.2487169367 1.9987486998 1.3689783719
F -0.0091214751 1.8806253028 -3.3924195087 -0.2720533682 0.6132007421 -0.8241044755
C 6.1286750657 1.0854522384 -3.0108115699 4.7271175896 2.3014825932 2.0731996591
F 7.0768495327 0.2565092242 -3.5462169876 1.3818637216 -1.2602616058 -0.7928238305
F 6.5391078160 2.3914415072 -3.2748875459 0.3420071286 0.8891714462 0.4337818067
F 6.0378000964 0.8052464721 -1.6763475823 0.3995964415 0.1886360540 1.8234942439
40
energy=-60440.7188676373 config_type=IL_pair name=BMIM-NTf2 Properties=species:S:1:pos:R:3:forces:R:3
C 3.1954842191 1.2134601094 0.0887217284 0.4856065325 -1.7501744726 0.2534821344
C 1.9603560457 0.5027840155 -0.4834513707 0.1963421122 2.7636937730 2.0961143257
C 1.8428674520 -0.7790609401 0.2931334111 1.3468971145 0.6097305799 0.5033341995
C 0.6842972922 -1.6392473222 -0.1110976287 2.1709571907 -2.9890341456 -1.4342750655
N -0.5607278767 -0.9381566076 0.0740394890 -0.2660771146 -0.8737994755 0.5987757379
C -1.2612678450 -0.9890029209 1.2326037996 -2.4495704187 0.0996304024 3.6822028278
C -2.4071793483 -0.2252415655 1.1223589794 0.7833702425 -1.7984754609 3.4185132058
N -2.3896157821 0.2919119945 -0.1281763221 0.1751315350 0.2283970231 -0.6956308623
C -3.4216561899 1.1548994551 -0.6420407814 -1.9244726295 0.7793490904 -2.6463647960
C -1.2587703481 -0.1550536207 -0.7457161144 -0.7482933056 1.1620929643 -3.2548710824
H 4.0484733681 0.5472506894 -0.2307939447 -0.2397686314 1.0108082516 0.6003642199
H 3.3436728037 2.2079573609 -0.3287034933 0.0322660237 0.5021543550 0.2110210173
H 3.0737149536 1.1630045504 1.1883145521 0.8296499312 0.8441407845 -0.0894253099
H 2.1921231865 0.3567933806 -1.5520343989 0.2587332014 -1.1479366809 0.0800401086
H 1.0740061340 1.1516074538 -0.4214484977 0.1018304374 -0.2901246888 0.4507446015
H 2.7722552863 -1.3520574030 0.1129301976 -0.2017497680 -0.1925937691 0.3711049471
H 1.7533672096 -0.5247633220 1.3614337554 0.1313795506 -0.4631033934 0.3255619364
H 0.7485953022 -2.5622013108 0.4993536996 -0.9602264882 0.0827065877 0.1724525868
H 0.8109152697 -1.9903221940 -1.1632782969 -0.4110428950 0.5857102821 0.0270307727
H -0.9880272376 -1.5343155774 2.1188527446 0.6479143015 -0.5837322584 0.4290499341
H -3.1669376864 -0.0767108022 1.8965535495 -0.1593157903 0.2478944252 -0.2983409844
H -3.5328177153 0.9897277603 -1.7530684278 0.1225148176 0.0432335417 0.8298336799
H -4.3901900875 0.8854700858 -0.1658539123 0.3654562888 0.3492215168 0.0428597331
H -3.1473203040 2.2091007549 -0.5119111405 -0.1061060271 0.4287079683 0.3698852211
H -0.9756181019 0.0921659756 -1.7507215768 0.9550111063 1.0882017559 -1.0801384442
O 3.6396236846 1.7347349338 -3.8166480675 1.2121944410 6.2249127226 0.8812943236
S 3.6269398255 0.2189444062 -3.8474716084 -3.7237344064 2.6521475116 -1.6551498068
O 3.3526653313 -0.3080116508 -5.2221306759 -0.5948842065 -3.4812964677 -6.6655135172
N 2.3165348955 -0.2769240820 -2.8368542297 -0.2578136775 -5.0563181411 2.5226295853
S 0.9126766544 0.5828767206 -3.3352998284 5.0231910715 0.6830775573 -0.8753806436
O 0.3641381455 1.4223501845 -2.2193555575 -5.0760024439 3.5545205916 5.8309545179
O 1.2276555888 1.4740674735 -4.5002849827 0.8785856237 3.9145182578 -6.2160457537
C -0.3079972759 -0.5838741284 -3.9213380854 -1.4083005440 -3.7041487248 -2.5697492354
F 0.3109258783 -1.2414772434 -4.9923578149 -0.6266818987 -0.4388448685 -0.3064032274
F -0.5496306391 -1.4716769183 -2.8991032831 -1.2160772468 -1.7023405970 0.7373718666
F -1.4132211993 0.1180005532 -4.3285449055 -1.5947350309 0.0337174643 -0.3646715318
C 5.1600525731 -0.3999366665 -3.1935843496 4.0172312258 -3.1332118438 2.8548544314
F 5.3088166609 0.1240755926 -1.9224036309 0.8988698304 0.5167480696 1.0570789227
F 6.2214040872 -0.1061357163 -4.0202505753 0.9531931071 0.4132044585 -0.3477144811
F 5.0497602132 -1.7809749786 -3.0792889724 0.3961090793 -1.2012840770 0.1633892539
40
energy=-60440.0221551970 config_type=IL_pair name=BMIM-NTf2 Properties=species:S:1:pos:R:3:forces:R:3
C -3.5990136069 -0.2638957522 0.2812548348 -0.3535365448 1.2995610961 -0.7327403817
C -2.9066368796 0.9510939012 -0.3016295792 -0.6751037603 2.5059171687 -0.1614465021
C -1.4900150074 0.5913728050 -0.6977946097 0.4659381909 1.4767862133 -1.6718917583
C -0.7666290893 0.1235661307 0.5540634491 -1.7488973864 1.8919083791 1.3298200495
N 0.6102798306 -0.2520906372 0.2991893752 -0.7761627328 1.2695888842 0.6416018547
C 0.9992228772 -1.4967593964 -0.0376995754 1.6435555884 -1.8391280401 -0.8365316499
C 2.3663890898 -1.4777626080 -0.1996048924 -1.1996213452 -2.7958807779 -0.5438251855
N 2.7873010436 -0.2086346558 0.0444493032 0.8839899746 0.5112496629 0.2477716422
C 4.1606448202 0.2618480709 -0.0131745919 1.2379015345 1.3065483232 -1.2165617642
C 1.7038176256 0.5384161961 0.3500628824 -0.1659128729 2.6870159072 0.6231568402
H -3.0080481447 -1.1659304358 0.0037177302 0.0742246375 1.3438340501 -0.2603711415
H -3.7401000536 -0.1515450790 1.3719223990 0.6175766390 0.2457619311 -0.2834636996
H -4.6187049306 -0.2906100204 -0.1770830133 0.7415617848 0.1150575737 0.0278437155
H -3.4597252285 1.3691100131 -1.1725663862 0.3683140209 -0.2331914835 0.2167096087
H -2.8952977801 1.7431268522 0.4729702343 0.2947686787 0.1940728229 -0.3715754402
H -1.0429169889 1.5238404008 -1.0978321586 0.5320590640 -0.3357352441 0.0513389516
H -1.4747080289 -0.1496855699 -1.5085030942 -0.0341930373 -0.3217136368 0.0414991226
H -1.3112538889 -0.7098152433 1.0403494661 0.6510508750 -0.9074398461 0.3454047481
H -0.8102684490 0.9894296584 1.2645986533 0.5164522360 -0.5535626729 -0.1510096954
H 0.3592457106 -2.3377138168 -0.1554919579 -0.9792842357 -1.6081748835 -0.0263519825
H 2.9813642740 -2.3227893504 -0.4710107472 0.7223573395 -0.1954695061 -0.1312260312
H 4.8145243792 -0.6055767096 0.1168454076 0.4193907522 -0.1062043862 0.2684897070
H 4.2975056165 1.0442029317 0.7541097235 0.2928696234 -0.1532330108 0.0657176306
H 4.3340406549 0.7065200178 -1.0345374419 0.1117665936 -0.2170092278 0.6925288879
H 1.7089821542 1.5902822969 0.5941461418 0.0320441401 0.6642389927 0.1888783520
O -1.4111766467 -4.3984130505 3.1919823887 -1.0268502418 -3.8490367405 5.5147283179
S -1.1284561369 -3.6781168989 1.8979668707 -5.1928707098 0.4419810348 1.7441609159
O -0.6097796377 -2.3034425844 2.1959875689 3.1933359461 7.6407498525 0.2776731907
N -2.4734685442 -3.6742081916 0.8358813630 1.0420107219 -2.2026545607 -5.7592446525
S -3.9023311569 -3.0827781317 1.5328125542 3.6221245606 0.1132220567 -0.4788890429
O -4.3742047694 -1.9166086027 0.6820019924 -5.5270127694 -0.7090460609 -3.1555523056
O -3.7991956304 -2.6236804709 2.9369547581 0.5794202049 1.9448879464 8.5787007681
C -5.1618608486 -4.3560983580 1.3808050786 -3.9670690072 -3.2065466730 -0.8617237042
F -6.3142772273 -3.8208640338 1.9678522884 -0.6071807651 -0.1475605475 0.3016317682
F -5.4223233170 -4.6058925581 0.0465468296 -0.4388383455 -0.3301752918 -1.1890454584
F -4.8042018074 -5.5241391769 1.9810175169 0.1854050936 -1.8188300191 1.0168133528
C 0.1608714743 -4.6179452714 1.0707580356 2.5760774088 -4.1181512869 -1.4369773602
F 0.4645950829 -4.0108668726 -0.1090181502 1.2914019118 0.7724283227 -2.5170894672
F -0.2839383381 -5.8944385893 0.7867410863 -0.3748172268 -1.2167288617 -0.4758027346
F 1.2502969738 -4.7835018970 1.9186433053 0.9681169454 0.4399604238 0.0937395926
40
energy=-60418.4287638114 config_type=IL_pair name=BMIM-NTf2 Properties=species:S:1:pos:R:3:forces:R:3
C -3.3306886791 1.1832184954 0.2148533377 -2.5393262854 -0.2390560302 0.9039502524
C -2.1758874965 0.3991013567 -0.4131821561 0.2184190228 1.9516362778 -1.2965807782
C -1.7822618671 -0.7225135057 0.5024425163 -1.3265209495 -0.1490285448 1.6255675723
C -0.6514783472 -1.5626990375 -0.0169164821 -0.1769547657 -2.3010289978 0.1216470067
N 0.5656375143 -0.8090026351 -0.2356372149 -2.6743243580 -3.0049718588 -1.3689477264
C 0.9286665563 -0.1832629167 -1.3712455232 0.9673232005 -0.3782819496 -5.3896313690
C 2.1676315427 0.4217435379 -1.1608031676 0.4668623546 -4.8092363538 -17.9658183629
N 2.5158927922 0.1431068707 0.0962315987 6.5679430334 -11.1436555647 -2.5974640148
C 3.7627139280 0.6076963457 0.6931248731 9.5107195847 -5.2855550832 -3.6566913197
C 1.5482692086 -0.6133449584 0.6899195786 -0.2025242608 -9.7416326026 4.9728995974
H -3.6606174637 0.7083054539 1.1801737703 0.3921644926 0.5042128578 -0.6677869710
H -3.0800782345 2.2275968196 0.4249525988 0.0090571741 0.2130886983 -0.0562429994
H -4.2405620478 1.1424480453 -0.4365291469 0.6424761912 0.3405242927 0.3288889116
H -1.3325470902 1.1373431728 -0.5176524535 -0.4122641409 -0.9555249560 -0.4308032562
H -2.5237756470 0.0323091782 -1.4044725395 0.6743704769 0.0891556136 0.2209946281
H -1.5246062129 -0.2747359896 1.4880056507 -0.0188457430 -0.3698321712 -0.3014087027
H -2.6536344311 -1.3974919387 0.6134421037 0.1246056859 0.1321252129 0.2842407595
H -0.4909660279 -2.3708082071 0.7298164989 0.4756237216 0.0864503252 -0.2137786340
H -1.0164750329 -2.0563299624 -0.9357534165 0.4685529281 0.0240371000 -0.3504160008
H 0.3889572831 -0.1286193761 -2.3123450801 -0.4299083032 -0.3185898714 0.0454170817
H 2.7451200526 1.0088764848 -1.8772307889 0.3742809869 -0.2589367495 0.1010238414
H 4.0893756902 -0.1373123209 1.4666286284 1.2929507581 -0.1338796892 -2.7454023879
H 4.5718063088 0.6480939316 -0.0628818769 -0.3001774076 0.2368122353 -1.6730895750
H 3.5891052855 1.5682323899 1.1888429026 6.0158808828 0.0262261441 -4.1323831218
H 1.5904024157 -0.9719512344 1.7093039387 -0.6431748435 -1.2173453466 -0.9231190299
O 4.2556470838 4.2460487780 3.1736443679 -1.4370746937 4.1779303322 5.1209859934
S 4.3410019141 3.1185365508 2.1703127519 0.9318138951 5.4510659108 -0.6347436298
O 5.4897115659 3.4913874947 1.2391365122 4.2833345185 0.3324309777 -4.3424555975
N 2.9746761709 2.9579974651 1.1994966824 -3.7671002407 2.9007410230 -3.0889390681
S 2.0201103719 1.5838039442 1.3813225326 -8.6575120735 16.3863504332 16.3951753774
O 2.6607279938 0.3946831842 1.9745386803 -1.4767959982 -4.0661848126 15.8697592613
O 1.5518393339 1.1650584485 -0.0065816368 -8.9554532380 16.2915619943 -6.5426493547
C 0.5111840930 1.8851517047 2.3068776565 -3.8948589716 0.3193487147 2.9891425682
F -0.1409355848 0.6504352717 2.3548258489 -0.6443201186 -0.2673219694 0.2286586884
F 0.8024610332 2.2513721887 3.5873195069 -0.3221989783 1.0376904808 1.9316326521
F -0.2372522093 2.8073290352 1.6071497437 -0.7813251838 0.6609576684 -0.0284032939
C 4.8606697920 1.6889069491 3.0366805359 2.1005598338 -4.7803481215 5.6293346147
F 5.9998312103 2.0610018412 3.7666211506 0.6747579212 0.3012337155 0.0372739196
F 5.2276055681 0.6569731261 2.2266524786 3.1388516236 -1.2943241727 1.3844647962
F 3.9458234889 1.3185103010 4.0277532695 -0.6782819999 -0.7678523981 0.2294566060
40
energy=-60439.2172488697 config_type=IL_pair name=BMIM-NTf2 Properties=species:S:1:pos:R:3:forces:R:3
C -3.3339434831 -0.2443682687 -1.2953081822 -1.7760634997 0.3599857046 -1.4938998281
C -3.0748625469 0.3773240851 0.0541567297 -0.0337331302 -0.2371826480 0.5778928422
C -1.5895404316 0.6860594997 0.2148970368 -0.2906541335 1.9143610068 -0.0325202255
C -0.7820441004 -0.5735439764 0.1022936834 -2.5857597806 -2.4288904253 -0.9565032313
N 0.6443261354 -0.3686073920 0.2438224294 -1.3641498800 -0.7889080130 -0.7425674078
C 1.3694960139 -0.4018822138 1.3914766241 2.3244521951 -3.1442251560 0.5356101952
C 2.6837487492 -0.1526963046 1.0497779919 0.7323273392 -0.7507053158 2.6815310573
N 2.7079613711 0.0236122777 -0.3001184411 0.7109112792 0.0907361091 -0.9949387150
C 3.8886138035 0.3099067593 -1.0956313951 1.4931666656 0.7703914425 -0.3535841312
C 1.4577534586 -0.1085294448 -0.7958423337 0.4499373024 0.5355292740 -2.6304923763
H -4.4296327329 -0.0794897283 -1.5062175304 1.0295487371 -0.6655977538 -0.2801441119
H -2.7418864551 0.2671674668 -2.0736200429 -0.2141898105 -0.1170724334 -0.1672675522
H -3.0818842088 -1.3151130572 -1.3011237389 -0.2807903143 -0.0058056930 -0.1606680020
H -3.6927643755 1.2795791025 0.2291880728 0.3164923768 -0.0648483238 -0.0981806404
H -3.3667668916 -0.3578027193 0.8259786308 -0.5045247366 0.3401551305 0.8794461679
H -1.4614535215 1.1000410144 1.2184910019 0.2264254466 0.4548429639 0.4330282000
H -1.2581796758 1.3912272558 -0.5754936290 -0.0059860938 0.0725022605 0.3738960344
H -1.0175331607 -1.0272977619 -0.8934367917 0.7915183867 0.0846602118 0.3836278981
H -1.1588372781 -1.3064713140 0.8455334124 0.4915247345 0.1205919484 0.2383564956
H 0.9770257836 -0.5906710524 2.3886534534 -0.0645440467 -3.0485350729 -0.1046430946
H 3.5360776298 -0.1068381493 1.7338706881 0.1685193378 -0.0259685317 -0.4267768224
H 3.9576112189 1.4031915114 -1.2038829887 0.0970419721 0.2829809300 -0.4290316194
H 3.7687899715 -0.1858675996 -2.0678050071 0.3930020163 -0.0584452321 -0.2423887513
H 4.7911198186 -0.0056565305 -0.5316077236 -0.2204623986 -0.3129871230 -0.3689627049
H 1.2068049081 -0.0132734599 -1.8479750481 -0.3086534629 -0.0246639861 -0.3159463372
O -1.5704372608 2.4486052972 4.9445798675 -3.7937427048 8.2398281778 4.0798655422
S -1.0382608484 1.3395579377 4.1425800796 -2.2611138455 -4.8297546139 2.4180328952
O -0.3113757042 0.4060984910 5.1006776885 3.6843776623 -4.1001056398 2.8810304619
N -2.1087321424 0.4022492726 3.2548506039 2.3199653379 -1.9483156253 -4.9090150919
S -3.7520540538 0.5317595557 3.5544941320 2.7327662437 -2.9589489126 1.2192707569
O -4.1471108497 -0.0731397647 4.8724647933 -1.5827676607 -1.7654599715 6.9077708298
O -4.4240424558 -0.3187236680 2.4959063919 -2.5887643840 -3.4278526605 -5.8795686556
C -4.4645773595 2.1266051437 3.3510499831 -2.6240872843 5.9392804110 -0.8064719102
F -4.2960861631 2.5665191580 2.0564685823 0.3612588384 0.6780260153 -1.8871844056
F -5.8261325806 2.0134314572 3.5562843140 -1.5173792221 -0.1481169096 0.3719130186
F -3.9784752711 3.0892785886 4.1919686510 0.6225182004 1.4154340782 1.2250367430
C 0.2167969984 1.9493462737 3.0214142755 1.3038054144 4.0510090749 -4.6219524014
F 0.8966564551 0.8763515414 2.4301288524 0.1892210594 4.1614948503 2.6765187405
F 1.0362094298 2.8729354885 3.5811482329 1.7567761360 0.7707988130 0.7410664349
F -0.4159274907 2.5910783618 1.9472014968 -0.1709512724 0.5645210290 -0.7166793111
40
energy=-60422.5960362000 config_type=IL_pair name=BMIM-NTf2 Properties=species:S:1:pos:R:3:forces:R:3
C -3.4122339499 0.7762287877 0.1298263910 -2.7607464452 1.8826099192 -0.2170357337
C -3.0233106153 -0.6777527936 0.2146071916 -0.5570512595 -1.4871794357 -2.2346466693
C -1.5274916690 -0.8259671187 0.5143898571 -9.4432808974 3.2806397678 -21.3566261883
C -0.7986987168 -0.1572555440 -0.6134651452 -1.2584910920 1.9999072447 -2.3018158585
N 0.6474423263 -0.2142677642 -0.4719631481 -1.7243597907 0.7935605900 -0.2068500574
C 1.4615776971 -1.1839136105 -0.9395027324 3.3749689973 -1.9101000257 -0.6220374058
C 2.7593902693 -0.8197673718 -0.5701134594 -1.1125332820 -4.5069010450 -3.0826317254
N 2.7130095880 0.3372082860 0.0995476639 1.2583382845 1.1087831199 1.1110520522
C 3.8758905194 1.0360601393 0.6479601554 0.8410629966 2.8710010379 -0.4049854926
C 1.4120584668 0.7177983317 0.1644465237 -1.5572295159 3.2159610710 1.8445017015
H -2.6699314913 1.4521710457 0.5835538509 -0.2812562899 -0.0031686580 0.3144051971
H -4.4183590325 0.8782886553 0.6237477533 0.9732760187 0.4963891967 -0.0870904848
H -3.6004870722 1.1223323907 -0.9191170949 0.4676283766 -0.3346570199 0.6196567354
H -3.1853526767 -1.0931957686 -0.8205435696 -0.4983567843 -0.4171653747 0.9649926276
H -3.6111582139 -1.2516541083 0.9669593034 0.0965039841 0.2441059649 -0.4175375495
H -1.3218277556 -1.9286537201 0.5054591178 -1.1697538544 -1.5399777396 -5.5578164648
H -1.3439341926 -0.3773295868 1.4966947901 -10.6841901019 27.1822052829 -3.0449128991
H -1.1321064040 -0.6251621686 -1.5612701506 0.6938553607 0.2652388237 -0.4101209278
H -1.0808029893 0.9307227427 -0.5853718288 0.2489742514 -0.7419169731 -0.5466723480
H 1.1610715930 -2.0677063762 -1.4916649151 -0.4085014243 -0.2149230997 -0.1491484091
H 3.5994420630 -1.4499616105 -0.8364210590 0.9613240848 0.2391759038 0.4643359013
H 4.5125301218 0.3876710246 1.2625348141 -0.3256917752 -0.5461378175 0.5345780244
H 4.4487278590 1.4942013870 -0.1932005225 -0.0009877331 -0.3902483185 0.0519640338
H 3.4832748177 1.9046708451 1.2236933296 0.2638231883 -0.5526237445 0.2392211198
H 1.0512794574 1.6352339059 0.6563206205 0.0404097875 -0.3342613827 -0.1689618452
O 3.2355724524 -0.6241406046 2.5725010956 0.7343573538 5.9806297814 -1.8019820249
S 3.1743663667 -2.1270071139 2.8159092490 -5.0341308534 2.0293198645 1.9788883712
O 3.2829714993 -2.4216001899 4.2834270821 1.0649399994 -2.1188831389 6.8845468790
N 1.7375814026 -2.7994708986 2.1366100776 -0.0501523360 -1.9699424131 -6.4025338172
S 0.3955523030 -2.6796443533 3.1892789614 5.2880076619 -3.5853061439 1.4434817944
O 0.5952105778 -1.7839200519 4.3543731323 0.5248076967 6.8274801523 5.9879525946
O 0.2121601918 -4.0808769459 3.7585701290 -1.5801432111 -6.1272835491 1.3190930396
C -1.1187899563 -2.3239825435 2.3229151982 -3.9241685829 -8.3066362053 3.7500015485
F -2.1837735258 -2.2324414572 3.1964118197 -0.7720663429 0.4837617467 0.5581917483
F -0.9761075959 -1.1012165757 1.6979257808 20.9001287269 -18.4390575448 26.1248841629
F -1.4439693496 -3.3377165585 1.4446883021 -0.3716248838 -1.5299540178 -0.8485091827
C 4.5790657205 -2.8297002025 2.0056268381 4.9180303636 -2.1144845012 -3.6629135823
F 5.7731984854 -2.3138820239 2.5235549445 0.3474268999 -0.1064879113 0.6271638694
F 4.5406597279 -4.1920751722 2.0839172165 0.4498535002 -1.8037645208 0.1961159101
F 4.6126107638 -2.4737010425 0.6605214148 0.0552564792 0.1625055102 -1.4836879791
40
energy=-60425.0393672733 config_type=IL_pair name=BMIM-NTf2 Properties=species:S:1:pos:R:3:forces:R:3
C -3.8920947048 -0.1770502006 -0.5313146006 -1.4841594184 0.5676610564 -1.2373276040
C -2.9227490006 -0.2270369788 0.6192899032 -0.0630222172 -1.9854751743 0.2613536778
C -1.5383722013 0.0622275345 0.0812722624 0.7738491861 0.9533582314 -1.4441396456
C -0.4847809770 0.0346909819 1.1698251513 11.4644817953 -8.4747471555 -13.5780475015
N 0.7939032715 0.3183524069 0.5735242329 -0.1716795674 -3.8374674246 -1.1856482608
C 1.3366240503 1.5532284424 0.4260750305 1.9445721086 2.9631974792 -1.1899252659
C 2.5631187055 1.3948438877 -0.1866646340 -0.5455889424 2.7588831069 0.4458184501
N 2.7617896450 0.0670605082 -0.4093410391 0.5616809942 -1.0238011968 -0.2035757556
C 3.9409381624 -0.5398501777 -1.0415241648 1.6096945591 0.8591986025 0.3210993596
C 1.6645675069 -0.5905093207 0.0630607001 0.3594819839 -1.9099270269 -0.3293507528
H -3.5697653535 0.6536248853 -1.1992569612 -0.5785991624 -0.4067819805 0.0527956646
H -4.9243666711 0.0382465694 -0.1605548570 0.4999728444 -0.3416511420 -0.4794907610
H -3.8558703239 -1.1336751761 -1.0972780145 -0.2745311438 0.5129215693 0.1076685446
H -2.8943252293 -1.2729500124 0.9882231668 -0.3139334350 0.4294051660 0.6195497194
H -3.1873745114 0.4774492299 1.4074777612 -0.3554577202 0.1631891450 0.3030170392
H -1.2448944897 -0.6615986333 -0.7062384105 -0.4091785980 0.0281291267 -0.0543548357
H -1.5957623363 1.0591938079 -0.4013708574 0.3287652752 -0.1122690310 -0.0433777505
H -0.5247839254 -0.9241559699 1.6903886329 1.0004508140 -0.6349902333 -0.3425009499
H -0.7626417144 0.8241262388 1.9289652552 29.5851152562 3.6913002263 -19.2938084790
H 0.8467300360 2.4777806077 0.7524378013 -0.0872217344 -0.3568817106 0.0644491759
H 3.2555638659 2.1795754679 -0.4497493169 0.6351334654 0.2526392021 -0.2911558694
H 4.7502499219 -0.6014236227 -0.2673980340 -0.2903944008 -0.4506402069 -0.4853998224
H 3.6623854192 -1.5082759830 -1.4654803046 0.1374678823 -0.3617680981 -0.1878366620
H 4.2766033171 0.1945069982 -1.8035527386 0.0195754194 -0.5217439297 -0.1856467223
H 1.5453075370 -1.6666005586 0.0191840355 -0.2489114261 -0.4646168484 0.0453222968
O -4.5548521769 3.5520159777 5.1667476446 1.5583147871 0.4209113818 7.2831891034
S -4.8727098965 3.2990963776 3.7229153546 3.8108735844 1.5303013814 0.4940422993
O -5.6548503946 4.4543860494 3.2063616486 -4.5246981642 5.6741154827 -4.1462871811
N -3.4450409631 3.0780672598 2.7816985464 0.7914129977 -0.4909923901 -6.3582969621
S -2.1701874431 2.5944467347 3.8239359556 -6.0904324018 3.7065377009 2.3695221183
O -2.6318195853 1.6705796069 4.9165564712 -1.7101444975 -5.7435116608 4.4683429467
O -1.6285945563 3.8398681770 4.4789924134 3.7938955819 5.7047632046 2.0105485784
C -0.8636806986 1.7784737392 2.9376822126 4.0029311084 5.1579756063 4.3093101216
F -0.3389679333 2.6197948312 1.9922672766 0.6244756555 1.1472581840 -0.9044062668
F -1.3981639994 0.6833336744 2.2707502193 -43.8552692761 -1.9202784781 29.3373982350
F 0.0639111738 1.3361723864 3.8317562536 1.3755547379 -0.6890202357 0.3889444528
C -5.7906703020 1.7780128623 3.6270063294 -2.8811296773 -4.6085792055 -0.9484563590
F -6.9586831612 1.8590300749 4.3549332276 -1.1071426896 -0.1690272770 0.8769739797
F -4.9960920236 0.7572044166 4.0982477279 0.5481510144 -1.4162536817 0.5505295807
F -6.1324352950 1.5093089587 2.3133103689 -0.4336556871 -0.6164275799 -1.4111157252
40
energy=-60436.7169971236 config_type=IL_pair name=BMIM-NTf2 Properties=species:S:1:pos:R:3:forces:R:3
C 3.0353109973 -0.9200638286 1.0803034801 0.3384867743 -1.3760003016 -0.5207817765
C 1.8404588562 -0.0175132958 0.8580028722 -0.3591545654 -0.4832208007 0.4616257704
C 1.9393652101 0.4492830001 -0.5855420925 0.5891800853 0.1374982591 1.1027221194
C 0.7587747303 1.3547489846 -0.8419530558 1.4793523308 2.9161118284 0.0646638164
N -0.5010849868 0.6701279760 -0.6418328775 -0.7625419745 0.0212889245 -0.1449012476
C -1.1246489012 0.0134697282 -1.6569101223 -3.1680926452 0.7576150812 9.6245224365
C -2.2803334745 -0.5101428102 -1.1073188615 0.0891479559 -1.0849388685 -3.9791077691
N -2.3522509453 -0.1777151552 0.2065158833 -0.0355533794 0.5589815172 0.3896019228
C -3.3850598767 -0.5187117475 1.1428717838 -1.7820906701 -0.5490263333 2.6582648104
C -1.2474220437 0.5478801477 0.4699696369 1.3463085560 1.7899613516 3.2704641449
H 3.9747977813 -0.3503588119 1.0438524029 0.0662897122 -0.1921500016 0.4645090057
H 2.8757092836 -1.5114087228 1.9832333469 0.6632743848 -0.0326495224 0.5717542203
H 3.0485980781 -1.6373059463 0.2236580913 0.2783665494 0.3149165224 0.5097283570
H 0.9242252837 -0.6496517142 0.9362098010 0.3518297361 0.5498880019 0.3933030773
H 1.8027907298 0.8329289028 1.5622704121 -0.1110733371 -0.1902994609 0.0955507443
H 2.9032910240 0.9638864478 -0.7703671136 -0.4392802215 0.0669698176 -0.0932267165
H 1.9420247995 -0.4476364483 -1.1968039866 0.1186485779 -0.1857286962 -1.0184603426
H 0.8676685677 1.7595588476 -1.8608808301 -0.4819570748 -0.3515292890 -0.6802299896
H 0.7554674571 2.2125062362 -0.1403956176 0.1843670856 -0.0284166740 0.0413505868
H -0.8291398488 -0.1035742005 -2.6771553392 1.8797667539 4.5597788634 10.5376854060
H -3.0205984697 -1.1026178820 -1.6564478806 -0.2510748157 0.0108946524 0.5061620340
H -3.7683298492 0.3696999361 1.7095765177 0.3810817895 -0.2954995146 -0.4219111758
H -4.2405924860 -0.9755702353 0.6188983409 0.1235482978 -0.1285748213 -0.1140385452
H -2.9525710667 -1.2358906001 1.8801977189 -0.4221672779 0.0822208443 -0.1384412145
H -0.9664508502 0.9840711916 1.4191715357 -0.1292729379 0.1747472504 0.6930571678
O 3.6643153482 -1.0041758277 -2.3620672626 0.6297882328 5.0269148591 6.6883448663
S 3.7294016771 -1.9038131008 -3.5455269380 -3.9614197479 -0.4870556898 -0.0656700980
O 3.2682494696 -3.2848101127 -3.1817878095 -1.6876211056 -7.0540053065 1.3139543262
N 2.7615202059 -1.3820012759 -4.8655642322 0.1235263428 -0.9736033653 -5.6839261185
S 1.4881032764 -0.3652858297 -4.3362455489 6.4990932185 0.4354219645 -1.1090373035
O 0.9969060538 0.5111106511 -5.4518628219 -3.0543859341 3.2739778144 -5.7577695625
O 2.0001398574 0.4880971283 -3.1961271340 1.0331986109 4.0208260499 5.1882412612
C 0.0716053013 -1.3038427051 -3.7714915678 -1.4356497141 -5.6908917138 -1.4731195431
F -0.3462035197 -2.0641919279 -4.8654079501 -0.7665246677 -0.4594025715 0.4801153444
F 0.3446487592 -2.0558633577 -2.6688546785 -0.6891845290 -0.9572547999 1.2470236814
F -0.9179481797 -0.3597829277 -3.5236802593 -3.5004079227 -4.5515815429 -21.6543228131
C 5.4094897792 -1.9275157802 -4.1406842524 4.5034544668 0.6701002948 -3.5469508171
F 5.5198022925 -2.8023709678 -5.2106378796 0.5003978526 -0.8843502825 -0.6748011600
F 5.6578891000 -0.6474019646 -4.6253889419 0.7874650527 0.9708928385 -0.2510195948
F 6.3069360353 -2.2495855186 -3.1590428903 1.0930706198 -0.3802841479 1.0180604775
40
energy=-60441.6665048660 config_type=IL_pair name=BMIM-NTf2 Properties=species:S:1:pos:R:3:forces:R:3
C 3.1614831931 0.8760895731 -1.0023961000 0.6560677344 -0.2301970891 -0.7638048914
C 1.8405994025 0.1019838536 -1.0551378991 -0.1854175878 1.3887622515 -0.7751050966
C 1.8669700833 -0.8170222901 0.1477906634 1.2214561247 -0.1277174009 0.3099612400
C 0.6092259603 -1.6549858072 0.2272976559 1.4323590729 -1.8373998579 -2.0944773501
N -0.5628851841 -0.8134010593 0.3378026006 0.5464771496 -1.1247754326 0.2228187794
C -1.0635997649 -0.4159015111 1.5209961961 -1.6173335512 1.3721750653 4.5533954640
C -2.1747249824 0.3709871368 1.2991115833 0.9748065913 -1.5623026068 3.0022369621
N -2.3284044201 0.4358239457 -0.0477592417 -0.7526317494 1.2384718871 -0.7153943262
C -3.4022524497 1.1818009982 -0.6967273015 -2.3013093740 -0.0411016093 -1.4242519864
C -1.3432695286 -0.2875929416 -0.6214854631 0.1011041861 -0.1954569260 -2.8931207127
H 3.9518238708 0.1206487518 -1.2035254253 0.1646868184 0.7352226118 0.2624719569
H 3.2018465744 1.6716728399 -1.7717914437 0.0829597470 -0.1822784579 0.2961527088
H 3.2381017578 1.3006228164 0.0158467462 0.4894687443 0.0415818441 -0.2858750862
H 1.0248897742 0.8484221417 -0.9420445310 -0.0137506254 -0.4606635235 -0.2803921787
H 1.7608372803 -0.4531244167 -2.0095018764 -0.2907850217 0.0911256593 0.1778725206
H 2.0120356056 -0.1878516880 1.0355431852 -0.0723485887 -0.0789414845 0.4006083364
H 2.7408743997 -1.4939137953 0.0541697630 -0.2699054401 0.0143100613 0.2171497168
H 0.6891560855 -2.3631292231 1.0501719875 -0.5543259384 -0.4394718752 0.6067978119
H 0.5475998461 -2.2028773597 -0.7512440567 -0.2768293510 -0.0185218235 0.7190960416
H -0.6830992148 -0.6543207805 2.5250309568 0.3714864721 -0.2462370344 -0.4510644818
H -2.7935021700 0.8388776810 2.0630557809 -0.2468483793 0.3648812147 -0.2616659353
H -3.7174691408 2.0370027609 -0.0624110525 0.3673578049 -0.1578551765 -0.1018602184
H -4.2668415560 0.4657316908 -0.8149470731 0.3486839667 0.5768701807 0.0698155421
H -3.1087685478 1.5189203532 -1.7113770914 0.1842007331 0.1080697273 0.3288279419
H -1.2006268742 -0.4244636705 -1.6653412424 0.1565186344 -0.1399059214 -1.4982233422
O -0.4212129257 5.1582016758 0.8100522552 2.2345315516 7.6209378655 -0.1902639518
S -0.9418753353 3.7642054252 0.9872111094 4.6500199201 -1.3117549131 -1.0257390891
O -1.4262273750 3.3276620087 -0.3736360853 -3.1462022925 -3.3441875155 -6.0173558236
N 0.2356380290 2.6400384825 1.4971474588 -0.1276852860 -5.0026763277 -1.3752340225
S 1.4421375061 3.3666701001 2.5047784765 -4.7419179466 -0.2729502017 0.5352843154
O 1.3675243067 2.7145267831 3.8608037144 0.2029518492 -3.6145379314 5.9795979456
O 1.2772035233 4.8465342440 2.5815048231 -0.0832928807 7.9339696053 0.1994109507
C 3.0266103808 2.9474652282 1.8096850235 4.2603483069 -1.2565159613 -1.2233660460
F 3.9872886318 3.5292802407 2.6166716528 1.1548254289 0.6505130679 0.2243399432
F 3.2096433313 1.5782822201 1.8961528974 0.4765421929 -1.7719849115 -0.5148074806
F 3.0985445863 3.3701142575 0.5180018931 0.7925348461 0.5310213279 -1.8504758707
C -2.3364101948 3.7789178257 2.1033564379 -2.7395648512 -0.1640145499 3.8612513133
F -2.9158114615 2.5261820413 2.1469020038 -1.7324631004 -0.9101266013 0.4052969163
F -1.8100241042 4.0329855386 3.3567894161 -0.3159673518 0.5922712194 1.3730344370
F -3.2697587651 4.6867679727 1.6966237700 -1.3969895932 1.2127083430 0.0028867147
40
energy=-60403.3107548113 config_type=IL_pair name=BMIM-NTf2 Properties=species:S:1:pos:R:3:forces:R:3
C 3.5438823396 -0.5118862567 0.6770893733 1.1823053399 -2.2455842819 -0.0482717953
C 2.9737265605 0.8010728727 0.2105330328 0.6959186609 1.7955452464 0.3947810500
C 1.4725334823 0.9072156819 0.5142949681 -0.5442955182 4.2452682119 -0.2714613994
C 0.8425290604 -0.2488800002 -0.2352998792 12.3966417531 46.0177718734 2.7858814783
N -0.5919350732 -0.3237580933 -0.0731011217 -14.5252712806 9.5267712061 2.9367351933
C -1.2258037144 -1.0193893137 0.9108173235 -0.6718962897 0.6528803283 4.1679063302
C -2.5852403932 -0.8473260669 0.7299442199 1.1212271671 -2.3735364093 3.4324814120
N -2.7709544733 -0.0640354742 -0.3408898018 -0.9079415583 3.8819163792 1.8450311190
C -4.0640336696 0.3317450796 -0.8325267941 -2.5071171181 8.8065478112 0.1668398012
C -1.5464493621 0.2536451232 -0.8287642905 0.6288241236 2.3412642617 -1.1310361240
H 2.8388585701 -1.0275336661 1.3653246804 0.6090876672 0.1194134475 0.0002902725
H 4.5390390643 -0.3860480093 1.1475469099 -0.4014665299 -0.0940048922 0.1402649687
H 3.7140106045 -1.1739992616 -0.1975858154 -0.0814955842 -0.0833074777 0.4245174877
H 3.5190739011 1.6047503852 0.7631266604 -0.3940257049 -0.0547379236 -0.7035392859
H 3.1228831999 0.9050765805 -0.8822450260 0.1339166994 0.3247187434 0.3112253070
H 1.2920824579 0.9014835828 1.5890368635 -0.1746772197 -0.0455363578 0.4697405283
H 1.1779132622 1.8851275104 0.0815805223 -0.2970384742 0.3497399526 0.5776894837
H 1.0885160370 -0.0784881710 -1.3124191299 1.5578464738 1.6420848590 -0.0441231779
H 1.2865384261 -1.2109297584 0.0535000142 35.9306210905 0.4860004002 20.6056580333
H -0.7236016449 -1.5950590955 1.6827359891 0.1954395618 -0.0543762442 0.0392636847
H -3.3079549456 -1.3102469235 1.3971106703 -0.8159111075 0.2690047327 -0.1137971855
H -4.8168322692 -0.4635283716 -0.6464989134 3.6609596407 6.2938721567 -1.4782832405
H -3.9912595667 0.5635780581 -1.9077302171 -0.9264970189 1.4841406849 1.5427061055
H -4.4397638196 1.2324529550 -0.2796822978 0.6051668147 -0.1677696520 0.7660561326
H -1.3477580338 0.8749606327 -1.6924340191 -0.1582165413 0.4823000271 -0.1698079605
O -1.3276242842 -3.5207641738 -2.8032451586 0.0835386286 -1.7148247021 -7.0543501088
S -0.9952345880 -3.0639529368 -1.4132641943 -4.4189423137 -1.8653895064 -0.6801125591
O -0.4715513251 -4.2149868138 -0.6216503888 3.2904850779 -5.0632677832 5.2925771903
N -2.4187993261 -2.4491445128 -0.6462102275 -1.4887845308 -1.6119352460 4.6560740369
S -3.5441454950 -1.9884998606 -1.8382381064 4.9307972135 -4.2922982743 -3.4171099619
O -3.2355038168 -0.6145798584 -2.3188688850 4.1700656218 2.3756908369 -8.3544416865
O -3.4275305807 -2.9609133183 -2.9993122847 -1.8190124722 -4.1110927251 -4.5703859745
C -5.2204158115 -2.0780484405 -1.2595093386 -6.3061719676 -2.3834343441 0.3650993131
F -5.3662991895 -1.2313365829 -0.1751689210 -7.4715930543 -7.0947052033 6.8376488291
F -6.0782937131 -1.6011649742 -2.2323507557 -0.7073203569 0.4133701490 -0.7604082951
F -5.6035294753 -3.3546083521 -0.9636301465 -0.3542872008 -1.0671588956 0.7941912937
C 0.2570214237 -1.8039090777 -1.5434068262 -3.6104283175 -4.8842950454 -16.0831742282
F 0.6244053221 -1.3284925739 -0.3168974462 -24.2213350918 -52.3780475379 -11.4744203281
F 1.3393473080 -2.4055562179 -2.1604013320 1.1581460056 0.0556868604 -0.0328939097
F -0.2033169446 -0.7831012790 -2.3596022228 0.4504295722 0.0251463130 -2.1527720294
40
energy=-60437.6582627616 config_type=IL_pair name=BMIM-NTf2 Properties=species:S:1:pos:R:3:forces:R:3
C -3.4992113662 0.3931689241 -0.6528555682 -1.7930701475 0.4946464365 -2.0287708678
C -2.9984842506 -0.0381231688 0.7025651407 -1.0736889596 -1.1858258926 1.6117077522
C -1.5083153930 0.1772501262 0.8672943369 -0.2833525008 2.5013080123 1.4460645669
C -0.7895979410 -0.6151579936 -0.1682727845 -0.7333207813 0.0169505102 -2.4510042519
N 0.6637172743 -0.4529140108 -0.0671197397 -2.3028352103 1.1224925239 -1.7509723842
C 1.4126564746 -1.2725821923 0.7032115566 -2.6100990853 -0.7343663664 -2.7096237834
C 2.7179250939 -0.8555727237 0.5783066004 0.9710389161 -1.1145278158 0.0458103628
N 2.7105732439 0.2014957250 -0.2633742459 0.7825987070 1.4792276142 -1.4129438624
C 3.9236087514 0.9038759795 -0.6298134031 1.0635476386 0.8613582602 0.0760468928
C 1.4476113304 0.4544578086 -0.6644876948 -0.7893510307 2.5138787998 -1.8554464361
H -2.7556574632 0.9749695503 -1.2243927824 0.0066848040 -0.2479006825 0.0082571260
H -3.7908433694 -0.5223686093 -1.2295658256 0.0815526283 0.9794145263 -0.0130097429
H -4.3840206533 1.0822499185 -0.5628668254 0.5115933946 -0.8589340668 -0.1094843153
H -3.1671932485 -1.1404553785 0.8510470872 -0.2645230524 0.8827612629 0.0527002345
H -3.5668913569 0.5198405357 1.4751013549 0.3845483739 -0.3580517702 0.0955867642
H -1.2349282383 -0.1342682206 1.8816766372 0.4283703175 0.0403824292 0.2038505922
H -1.3014996162 1.2682106767 0.7116114219 0.1662737018 -0.6487145492 0.4072661629
H -1.0690554571 -1.6631163955 -0.0782949447 0.3812097921 -0.8886233294 0.2714783888
H -1.1536796466 -0.2869822955 -1.1732902159 0.6162271293 -0.1169941354 0.3064850788
H 1.0534897238 -2.1036227328 1.3071269766 -2.1962747837 0.1719387760 -1.4499742898
H 3.5655616372 -1.3113441800 1.0749465431 0.8939742002 0.7937347668 -0.7787303783
H 4.2492805678 1.4398803330 0.2850654614 0.4816216339 0.0700291769 -0.3573317456
H 3.6996715832 1.6056406692 -1.4342596149 0.1122814710 0.3859637675 -0.3871997983
H 4.6510451616 0.1401495775 -0.9527715575 0.3308418164 0.2470690970 0.0054330289
H 1.1242371582 1.2353180773 -1.3365879145 -0.0236583207 0.6066891573 -0.3780367921
O -0.6219066096 -5.8912312846 3.5227013784 -1.8177751108 -5.6859741744 -0.4524213068
S -0.2326480079 -4.4259465092 3.3944478649 3.4924393472 -3.1897574425 1.4338432490
O -0.0218705525 -3.8304012899 4.7379913393 0.7398578219 4.2773187696 7.2045069473
N 1.1254582298 -4.4009774125 2.3748437144 1.2328176995 -2.6114409899 -5.1536533253
S 2.3596971347 -3.3161252172 2.8237899145 -3.5738387419 -3.4376055022 2.6863713790
O 2.2241529793 -2.0866970667 1.9704073645 3.9589511250 1.1694953599 3.7299449485
O 2.3472682771 -2.8936071637 4.2430573217 0.6587454805 1.9985205805 8.3759536207
C 3.9159604977 -4.1317799252 2.4439114285 4.2921952332 -2.5789127078 -2.1618431677
F 4.0513724681 -5.2968650637 3.1277157544 0.2427216130 -1.7917342584 1.3338342023
F 4.9800870893 -3.3053779620 2.7334942926 1.1368910192 1.0545284532 0.5335921900
F 3.9880075915 -4.4284802033 1.0991908268 0.0921864197 -0.2953571771 -1.7501267722
C -1.5620960582 -3.6412762408 2.5351898500 -3.4384455198 2.4356108654 -3.8031153858
F -1.7981423258 -4.3588769682 1.3685659990 -0.8370410034 -0.4786011074 -0.8245516972
F -2.6991809218 -3.5170945401 3.2899095648 -1.2625300499 0.2739491792 0.4564449258
F -1.0837747406 -2.4011618665 2.1340375255 -0.0740827529 1.8162191596 -0.4588048882
40
energy=-60441.2614659468 config_type=IL_pair name=BMIM-NTf2 Properties=species:S:1:pos:R:3:forces:R:3
C 3.7559404870 0.0417966280 -0.2218921476 3.7203255424 0.1917425847 2.4867507349
C 2.7163088346 -0.2739510499 -1.2345155813 0.7488715858 -1.2944710683 -2.7123986355
C 1.3150185369 -0.4173504501 -0.7100913396 -1.0515895099 -2.6903561289 -1.5303961320
C 0.7830574634 0.7997714934 -0.0396034960 1.4531585330 1.3639577156 1.1002148349
N -0.5656058895 0.5768132652 0.4336203319 0.2019595885 1.1275450235 -0.9258869360
C -0.9489043021 0.1034497089 1.6374468469 0.1093781229 -1.5114783761 3.1729972578
C -2.3271305621 0.0495920543 1.6672755571 0.6615642329 -0.4444409436 2.6059944863
N -2.7288843250 0.5012518801 0.4570393080 -2.9846497126 0.2554816702 0.1693811929
C -4.1065870807 0.6223629774 0.0305730839 -2.4341034883 0.0398219612 -1.2970777683
C -1.6864988750 0.8241568827 -0.3014698281 1.4113001806 0.9119500544 -2.7922229436
H 4.4978235346 0.8095857144 -0.5552744224 -0.6691311707 -0.3098244269 -0.0218890051
H 4.3974106157 -0.8573336271 0.0040349562 -0.7249010620 0.6546632569 -0.0860275562
H 3.3800720513 0.3927601548 0.7583509716 -0.1456277161 -0.0715458416 -0.3258359427
H 2.9772795961 -1.2658931968 -1.6986963355 -0.2462773455 0.7714909139 0.1986062906
H 2.7829453259 0.4497825983 -2.0651228219 -0.4107545570 0.1271489559 0.0628112020
H 0.6887653387 -0.6806125923 -1.5998862172 -0.0117099541 0.1590407484 0.6783984223
H 1.2514591199 -1.2786330115 -0.0146558198 -0.0491560211 0.1412992712 -0.0731453441
H 0.7616560688 1.6482306452 -0.7344444207 0.1721572732 0.5169623338 0.0332864384
H 1.3970006777 0.9991746109 0.8739034244 -0.2097998372 0.4436516135 -0.5722358201
H -0.2676296948 -0.1788023554 2.4282490675 0.5477374016 0.0811182949 0.3654225010
H -2.9454940759 -0.2874483001 2.4966898925 -0.5043252723 -0.0079599577 -0.1121091754
H -4.2882608848 1.5888027812 -0.4659271042 0.2100026073 0.2715563692 0.0523952464
H -4.3427944842 -0.1615872476 -0.7159904410 0.0017097150 -0.2305822030 0.1729800296
H -4.8041164613 0.5396591713 0.8775644994 0.1852695493 -0.1508546519 0.2096777481
H -1.6928310152 1.2095681766 -1.3071779643 -0.1580206351 0.2665011028 -0.6131489826
O -1.1929269569 -1.9155740059 0.9115060999 3.0406678225 7.3298064558 1.9958619828
S -1.6441674897 -3.3345621214 0.6952890761 -5.8825376739 -1.8432376597 0.6552922458
O -1.9268404519 -3.4549373715 -0.7756683516 -0.5354740081 -1.2574298273 -7.3931012140
N -3.0230161143 -3.7420215645 1.6630260165 0.2637542728 0.5964240219 6.2707299497
S -4.2806732347 -4.2703179112 0.5730916849 4.9848557892 2.2437354802 -1.3675693703
O -3.8730154864 -5.5750554397 0.0135118296 1.6663958793 -8.7299207720 -2.5101086787
O -4.3484650307 -3.2560309655 -0.5459351523 -1.8287628412 5.3142281740 -4.4870180121
C -5.8590530829 -4.3021175884 1.3489669526 -5.3270583996 -0.3109435261 3.4123753391
F -6.7761577656 -4.7345156261 0.3940290616 -0.7146173758 -0.0621383386 -0.3294025856
F -6.1676695027 -3.0351898351 1.7959093309 -0.8204266790 1.4393165823 0.2850194707
F -5.9057701193 -5.1416969587 2.4387961531 -0.3687350674 -1.0972949591 1.1955809178
C -0.2512698335 -4.3913312075 1.0864076822 4.1435533443 -2.2980507377 1.6792833120
F 0.7699715094 -3.9576979803 0.2464935598 0.9719608388 -0.2079441370 -0.8501083254
F 0.1834314019 -4.1696312983 2.3760214342 0.5859844870 -0.0068107620 1.5988650532
F -0.5409020716 -5.7128571041 0.9270552344 0.0141832789 -1.7227762125 -0.4016924420
40
energy=-60439.2582384542 config_type=IL_pair name=BMIM-NTf2 Properties=species:S:1:pos:R:3:forces:R:3
C -3.3997052701 0.7217369346 -0.5815125041 -1.1763750303 -6.3977495077 1.9275399061
C -2.1664473190 -0.1905357740 -0.5807402804 -0.5960208018 -0.7906205804 -1.9313181569
C -1.7468019097 -0.3439677838 0.8505460289 -1.0383340893 0.3062021437 0.8915249299
C -0.5407277361 -1.2147851380 1.0458249629 -1.2271575930 -2.3911131408 2.6446697788
N 0.6379696757 -0.7186351267 0.3593952080 -0.7183029477 -0.4709089628 1.6981275031
C 1.0596614220 -0.9847727154 -0.8897711372 1.8355110754 -0.3879398006 -3.7756661456
C 2.2379814239 -0.2779201064 -1.0989893356 -1.2105480367 -1.9573913914 -2.5845436343
N 2.5066767405 0.4098493054 0.0445430149 1.0157561136 0.5470618075 -0.2004998064
C 3.6388549549 1.2933065413 0.3056620482 0.3499895801 0.4437034440 1.8617003412
C 1.5230590438 0.1293990934 0.9195558902 -0.1994607492 2.0611967666 4.1239440371
H -4.2439969600 0.0447151219 -0.3095223044 -0.0905196723 0.2169065541 -0.3518703275
H -3.5450292512 1.2312232129 -1.5364788690 -0.3501570824 -1.1476417738 -0.2322694640
H -3.3513431224 1.4701067037 0.2314885999 0.1638668436 -1.0581369908 -0.1722659076
H -2.4485272922 -1.1907212800 -1.0033431300 0.3012177354 0.4831925624 0.2396866117
H -1.3774048798 0.2116987455 -1.2337135875 0.2524381524 0.4015942300 0.2447453820
H -1.5840113722 0.6449986923 1.3030582446 0.1370848192 0.1465895522 0.0747377583
H -2.5792062568 -0.8409774943 1.3905356504 0.2293958656 0.2477437361 0.1147646809
H -0.7860390887 -2.2701176180 0.7692355496 0.5380339681 0.4565223414 -0.4940247434
H -0.3728284322 -1.2591079507 2.1508124435 0.7218177681 0.0923954213 -0.4845747396
H 0.5518546987 -1.6377192317 -1.5875270889 -0.4121531379 -0.3563570520 -0.1992947960
H 2.8444411812 -0.2630814321 -1.9961355152 0.4195634846 0.1864326960 -0.2866489781
H 4.2188709098 0.8626520403 1.1529820468 0.3168466595 -0.0326366368 -0.4942901866
H 4.2129718170 1.3834974523 -0.6125025840 0.4769957455 0.3694869469 -0.3617050781
H 3.2166990758 2.2333891911 0.7038861119 0.2051371312 0.4908883950 -0.5383344968
H 1.4930279471 0.5557686162 1.9301940448 -0.2791223105 -0.1250270713 -0.0370355977
O -0.0460070121 2.9500643109 0.9039297042 2.6590750689 -2.6679522330 7.2458566834
S -0.3842023120 3.5147014205 -0.4410589947 -5.5699755673 -0.0810937990 0.0496170935
O -0.6866334195 2.4575431736 -1.4610950403 -0.4958964196 -5.3017601148 -5.5552767074
N -1.8169301614 4.4875463203 -0.2285031313 0.3726278812 4.8624370870 3.7501621300
S -3.0660485194 3.9900578349 -1.3073252939 4.0545616099 0.8687506710 0.1180562076
O -3.4517582383 2.5847860939 -0.9440649065 -2.9586215308 -0.3363581164 1.2911084689
O -2.6698784581 4.0507584653 -2.7403038135 1.9470450086 1.3088226433 -8.0167094364
C -4.4537874379 5.0813377123 -0.9730843140 -2.7013408168 2.5196806675 2.8114814736
F -5.4589271205 4.7115966912 -1.8127173948 -1.6487322920 0.1527744861 -1.5547893900
F -4.0852482955 6.3894837441 -1.0442283524 -0.2028120738 2.2109041134 -0.4440912233
F -4.8789821446 4.8050898095 0.3228763732 -0.5818903879 0.0806955089 1.1242538244
C 0.8727361441 4.6175756020 -1.0435318798 2.5954104030 4.5329405300 -1.3616819560
F 0.4207013617 5.1448159820 -2.2379959384 0.2220264014 0.2200401795 -1.4243175863
F 1.0493349479 5.6862523901 -0.1885857806 0.4763122255 1.1916295445 1.0255698275
F 2.0543732525 3.9475448689 -1.1449139800 2.1640175345 -0.9044815858 -0.7071027158
40
energy=-60412.2341832221 config_type=IL_pair name=BMIM-NTf2 Properties=species:S:1:pos:R:3:forces:R:3
C -3.4179081179 0.5664309653 0.7586333728 -1.6709134118 1.8046178150 1.1316792108
C -3.0131414016 -0.7133890461 0.0935072792 -2.5133089469 -3.2919191809 3.3866963753
C -1.5172327894 -0.9713515442 0.2066183785 -0.5686630824 -1.0273533898 1.6525771841
C -0.8275273015 0.1869309950 -0.4645531645 -3.3809043025 0.7658983999 2.6524796496
N 0.6030958779 0.0931515153 -0.4430410143 0.9795915882 -5.3097838908 20.6253712363
C 1.3376577316 -0.5045610224 -1.3995910331 2.5762923055 -12.7655941062 16.8462582306
C 2.6723547307 -0.4111886315 -1.0610376467 1.8614106957 -0.7415218018 6.5798108407
N 2.7327178580 0.2530871464 0.1164206213 3.9316909286 0.7650557357 2.7425235025
C 3.9447379662 0.5873875737 0.8631472772 -0.2348201180 1.9786308241 2.0632044693
C 1.4788976486 0.5474029027 0.4710193401 -3.3625827448 0.8651487362 3.0570958829
H -2.7812215487 0.8145162619 1.6385882468 -0.2384172402 0.1882345986 -0.4234937411
H -3.4510959807 1.4238595859 0.0330618606 0.4341495358 -0.3763130458 0.6128552149
H -4.4651832388 0.4988453926 1.1414858389 0.5414013014 -0.0301680172 -0.1354339717
H -3.2242343337 -0.6681755975 -1.0050866681 -2.5255000980 -1.8089068328 6.0290233052
H -3.5573396544 -1.5991558651 0.4824184882 0.3140256350 0.4295412267 0.6488854713
H -1.2654737792 -0.9874372388 1.2879345784 0.4238855681 -0.2554159060 -0.3498220198
H -1.2931403515 -1.9384376238 -0.2590072291 0.4751084674 -0.1181525193 -0.0623181252
H -1.1064059092 1.1098362692 0.0904861413 0.0423752991 -0.1017087879 -0.4255760538
H -1.1617201113 0.2527161531 -1.5177410577 -0.3233014944 -0.2877752985 1.0365042156
H 0.9329508122 -0.9784247149 -2.2867306374 -9.7887541970 -7.0908822059 4.4986649256
H 3.4898151636 -0.8059345660 -1.6493780639 2.2070289342 0.0917135227 1.9963039885
H 3.9760934788 0.0056784568 1.8055640178 0.4528010517 -0.2870888265 -0.2153393360
H 3.8827234156 1.6641220421 1.1828163895 0.0426935201 -0.5450288102 -0.2036820373
H 4.8442379020 0.5014959582 0.2567183777 0.3372613037 -0.5899758779 -0.4133793008
H 1.1863419328 1.0725946322 1.3575664121 -0.1207810313 0.7845547177 0.7824856290
O -3.4655150295 1.5040035744 -5.1870059883 -2.5303148274 5.4222031815 -2.1751216951
S -2.7100817393 0.4345501867 -4.4127856138 2.4468118387 0.1731893822 -3.6878641595
O -3.1033385166 -0.8616717528 -5.0406221536 -1.6165054477 -7.4993355957 -2.1161102433
N -1.0511924045 0.8109723475 -4.5451225416 2.4605580595 4.7986249418 -0.2136126704
S 0.0046246831 -0.4450628409 -4.0632079284 -4.6136851100 0.7082090292 -6.7417789905
O -0.7420427403 -1.6118207953 -3.5356069239 -4.0781103193 -6.3573392523 4.7879865101
O 0.8506082878 -0.9095433046 -5.2314798176 4.4281095518 -0.9992951659 -4.4992555498
C 1.1680876971 0.2237142505 -2.8858542077 3.1690417058 10.2188603621 -9.7702120678
F 1.8391560664 1.2359846682 -3.5601770041 0.4130347228 0.5497516377 0.5250053342
F 2.1328832631 -0.6957478632 -2.5302541295 15.3665044828 -4.2652679768 -27.0872103823
F 0.5159294622 0.7324112687 -1.7672858605 -5.3352823211 20.7124874912 -18.4552170512
C -3.2924716428 0.5438077177 -2.7304271938 -4.1569685390 2.2119381527 2.7800390620
F -4.6505372823 0.2200146102 -2.7279784515 -0.4587712919 -0.3652089394 0.2576373923
F -2.6753842205 -0.3485778801 -1.8945422039 4.0773092056 0.9479325302 -8.8901523531
F -3.2089593993 1.8558190366 -2.3024358108 0.5210825608 0.6878706262 1.1911449837
40
energy=-60440.9809265305 config_type=IL_pair name=BMIM-NTf2 Properties=species:S:1:pos:R:3:forces:R:3
C -3.1827044032 0.9679911650 0.8343148273 -0.8975034766 1.2476528320 0.5636079109
C -2.0718602780 -0.0386502303 0.6039729857 -0.1293057540 0.9637087590 0.1990124112
C -1.7895836196 -0.2192533357 -0.8805919438 -1.4269136329 -0.3343909536 -0.5449850686
C -0.6810071328 -1.2324020777 -0.9740402131 -0.8514420702 -2.5369675017 -2.1286645808
N 0.5034392630 -0.7747814642 -0.2912117591 0.1704968440 0.0299750845 -2.2780527043
C 0.9003096058 -0.9314773495 0.9795496335 1.2215654751 -0.6191818348 4.1294336710
C 2.1183084540 -0.2997311444 1.1399390488 -1.7978058048 -1.9352871360 3.2559186410
N 2.4574489137 0.2410226004 -0.0416389747 0.7814028179 0.5890143740 -1.0411800940
C 3.6399704025 1.0016241404 -0.3808049155 2.0168144077 -0.0595813629 -0.6296006641
C 1.4662279690 -0.0521216425 -0.9148705390 0.0049734288 1.4560284940 -3.7172555573
H -2.7517580492 1.9951401463 0.9377110857 -0.4056349684 -0.5008425936 -0.2542579588
H -3.9193425782 0.9482457997 -0.0087420345 0.2106005345 0.0623656129 0.8948955903
H -3.6369809305 0.7128077499 1.8152632648 -0.3949298999 0.3547142650 -0.5434034743
H -1.1805547558 0.3756884271 1.1174848726 -0.1849210890 -0.7675650172 0.0509447242
H -2.4151348061 -1.0017683117 0.9865545448 0.4646096386 -0.4426371366 0.4831267339
H -1.5817781038 0.7076389630 -1.4116137497 0.4470043256 0.5721088081 -0.0555767423
H -2.6658915837 -0.6759743350 -1.3851845320 0.0454019063 0.1782298116 0.1875735412
H -0.4570889051 -1.5063773576 -2.0391312694 0.3613735409 0.4181744264 0.5328669794
H -0.9965143320 -2.1867840629 -0.5062726433 -0.0116557501 0.1472949472 0.2056834431
H 0.3258231309 -1.4716181613 1.7177973191 -0.3225008647 -0.3342712257 0.3515507200
H 2.6742175440 -0.2614055884 2.0534476573 0.8657916341 0.3045821421 0.7104617807
H 3.3255580720 2.0244370690 -0.6508380736 0.0231255647 0.3652812395 0.0682483289
H 4.3198359685 0.9467716840 0.4921820819 -0.0858845813 0.4532617142 -0.1679959998
H 4.1360240441 0.4750696271 -1.2371537582 -0.1270855567 0.5712866350 0.2583289751
H 1.4630361103 0.2559076892 -1.9561229156 -0.1096568453 0.0808019959 -0.3275001049
O 1.0914085971 2.7912360607 -0.3398488204 4.1955468869 -5.0029142351 -4.8449019578
S 0.3414579895 3.8200743117 0.4488169444 -4.8683496017 -0.6066420281 -1.3346127830
O 0.0778296113 3.3265859813 1.8395829102 0.0726663679 -2.6882296756 7.8621226845
N -1.1903135455 4.1781755678 -0.2667645510 -1.2889647178 -1.1986702483 -5.8730236281
S -2.1739287095 4.7987730405 1.0124365844 4.4297688099 2.0050580244 -1.9193959556
O -1.7811885786 6.2535058383 1.1959985679 0.8267044450 6.3825150768 0.3453368642
O -1.9165643639 4.0636136257 2.2670143417 -0.0968154219 -5.4462584334 8.3952477884
C -3.8906335753 4.7963922271 0.5722181388 -4.7446026645 0.1860094761 -3.5619276574
F -4.3519256686 3.5381231168 0.2883133002 -1.2784559070 -1.4846064221 0.1814128056
F -4.0021959465 5.5303279952 -0.6102523663 -0.4295209068 0.6842862059 -0.8083614881
F -4.5775971078 5.4536619949 1.5526493354 -1.2723986193 0.3319681652 1.2692725833
C 1.3341503674 5.2852683165 0.5082597460 3.6192516421 4.7039533634 1.2717101484
F 2.5609316856 4.9538950799 1.0918298605 1.1818285247 -0.2870962710 0.0798837267
F 1.5284181363 5.7590847593 -0.7539286425 0.5282219860 0.9565677390 -1.8933282778
F 0.8081594485 6.2682668591 1.3118451639 -0.7254434722 1.2000203645 0.6417799236
40
energy=-60425.5279845720 config_type=IL_pair name=BMIM-NTf2 Properties=species:S:1:pos:R:3:forces:R:3
C -3.6057250683 0.6120178078 0.0589279127 -0.4800012469 0.9440928247 -1.0421165207
C -2.9386377715 -0.5672026130 0.7345502670 -0.9541394182 0.0654564012 1.9291438920
C -1.4559183812 -0.3223712185 0.8293924944 0.8507197343 -0.3238725073 1.6255045918
C -0.7902847581 -0.1362277176 -0.5102036199 -0.3494707435 -1.2354317639 -1.3806656444
N 0.6322570496 0.0869474685 -0.2054170457 -2.7250172050 -0.6120245107 -1.5815928427
C 1.1082351033 1.3299879499 0.0004825913 1.5569929463 -0.0471104859 -1.0852089490
C 2.4538396526 1.1935581062 0.2578575261 -18.2563787080 -12.9968326843 -0.4103897577
N 2.7265968023 -0.1315980306 0.1946154570 0.9959146586 -0.5926997534 -0.2108165996
C 4.0440107322 -0.7445297244 0.4039413442 1.0576970063 0.2712684302 1.6802130325
C 1.6059134854 -0.8240382066 -0.0914314047 -0.7966471798 -3.4264330700 -0.6117761596
H -3.4102682459 0.5097475038 -1.0269526929 -0.6698306833 0.4075068846 0.1690126309
H -4.6823824349 0.6222811683 0.3004386253 0.0590206178 0.0524515859 -0.4950792101
H -3.1670687912 1.5733165657 0.3940417128 -0.1305753942 -0.2990767213 0.0034727279
H -3.1963539042 -1.4977279902 0.2250453342 -0.0425838016 -0.4522240365 -0.0284100707
H -3.3107433349 -0.5732699675 1.7821344715 -0.0329264977 -0.6130735482 -0.3289648086
H -0.9181282579 -1.1396067336 1.3465778550 -0.3036769325 -0.0720622803 0.0051472125
H -1.2732301539 0.5886595607 1.4319648677 -0.0359148174 0.0630413981 -0.1556282026
H -0.8433091107 -1.0635705656 -1.1267239830 -0.2879153033 0.3539103867 0.0154725566
H -1.2066222595 0.7285844551 -1.0682782955 0.4150830631 -0.1807277974 0.0613674981
H 0.5582169927 2.2714039611 -0.0259417097 -0.7313251167 -1.5596608911 -0.0873724465
H 3.1377515137 1.9869930581 0.4654151286 -37.2777740309 -12.5917207647 9.9643403591
H 3.8701292447 -1.6847955373 0.9434298711 0.3532135556 -0.4846647141 -0.1999767715
H 4.5860064947 -0.8711606803 -0.5445329300 0.1023314669 -0.2000560214 -0.1520898394
H 4.6124962738 -0.0564694734 1.0900559783 -0.2325922615 -0.4408350180 -0.6908903247
H 1.4632191275 -1.8909291465 -0.2148964527 0.1066560131 -0.5000251529 -0.1890625670
O 0.7668830969 4.5575052259 2.3988195425 2.2627245367 3.8259218272 6.4782418926
S 0.3628685079 4.0457692706 1.0545782910 2.6851408785 -0.2198955216 2.7188030885
O -0.4755325578 2.8131943081 1.2824015664 -4.8318074137 -5.5492399338 -0.1784732055
N 1.6915736950 3.6328698216 0.0755291243 1.9177143597 2.3421861639 -6.1147157777
S 3.1578878491 3.3780490836 0.9089386951 -5.9910562797 12.5332034830 5.4410305220
O 3.7941097470 2.1347597567 0.3060594069 61.0658143028 11.7606477694 -15.8079030061
O 2.9440516256 3.0443337413 2.3722720708 -0.2397800362 -0.8021351533 6.0970652410
C 4.3357386635 4.6860081978 0.6914902516 3.7698421852 4.6177048856 0.2899232603
F 5.4832180801 4.3800539903 1.4061189795 1.0951950529 -0.4742914823 0.3565518726
F 3.8885645355 5.8880294846 1.1981354238 -0.5733432988 1.3748825296 0.1364554341
F 4.6155335832 4.7867792478 -0.6372878725 0.6088348639 0.4381085562 -1.9415589480
C -0.7220153586 5.2181720361 0.2320468492 -2.6879878895 3.1288038833 -3.7910219831
F -0.0603830782 6.3899501838 -0.0790137029 0.1414260618 1.2328984698 0.0212304186
F -1.0959756470 4.6161841806 -0.9615205253 -0.6547192971 -0.3091095215 -1.2028949269
F -1.8580588745 5.4294133919 0.9807526540 -0.7733902417 0.5581377819 0.6797281579
40
energy=-60441.8020039971 config_type=IL_pair name=BMIM-NTf2 Properties=species:S:1:pos:R:3:forces:R:3
C -2.7948310363 -0.2929190869 -1.3682977858 -2.4717215298 -1.5755843828 -1.9665503245
C -2.2103036574 0.7257202326 -0.4533232821 1.3002746263 2.7394405224 0.0428300368
C -1.8733458443 0.1584278611 0.9167405423 -2.4731282856 0.7229248342 0.8548953062
C -0.8836360772 -0.9482470317 0.8254745059 -1.2715512563 -2.8326744308 -0.2138187933
N 0.3769706354 -0.5384375231 0.2307770980 -0.1807832111 -0.1839535933 1.2883038143
C 0.7568071214 -0.5443179146 -1.0592522906 1.0546985110 -0.1165106940 -4.2414160211
C 2.0415298599 -0.0667166734 -1.1515318338 -0.9417470454 -0.8429300873 -4.2030079871
N 2.4499425005 0.2340604743 0.0979605261 1.6090890146 0.5756157519 0.4072051174
C 3.7635698705 0.7707277985 0.4184656575 2.3748689041 1.0734624511 0.0826759724
C 1.4296065075 -0.0591869256 0.9101117292 0.2695171353 0.5495584445 4.8882248244
H -3.7617568058 0.0844154500 -1.7742000879 0.4225180385 -0.1854898780 0.0961023490
H -3.0682427409 -1.2098909182 -0.8030148643 0.3085102504 0.0848650871 -0.6037009228
H -2.1831058989 -0.5192928227 -2.2673221865 -0.0094227866 -0.2217663859 0.6379325404
H -1.2918250239 1.1482098860 -0.9378793290 -0.6437649647 0.1517531996 0.5326023798
H -2.9339232180 1.5417350218 -0.2701218755 0.2691346651 0.0959253917 -0.3086762643
H -2.8304820489 -0.3125690935 1.2754936245 0.7853742942 0.3685845606 0.1778922549
H -1.6039570291 0.9529384354 1.6240032364 0.2780826342 0.0561317896 0.1481430013
H -1.3195666757 -1.7134042779 0.1178998961 0.6028181189 0.3058322502 0.8227246895
H -0.7297055203 -1.3854474329 1.8307896518 0.6325581459 -0.3000109478 0.3539912895
H 0.1602004935 -0.8678218898 -1.8889494657 -0.8149478378 -0.4432026406 -0.5023131978
H 2.6408948555 0.0547812203 -2.0645254351 0.0842066043 0.0310711428 0.3320198062
H 3.7827240243 1.8759552284 0.2926291941 -0.2398921907 -0.1509030260 0.2334879015
H 4.5213305588 0.3601420034 -0.2836934584 -0.4221498879 -0.1189697211 0.0396948940
H 4.1014939326 0.4749488363 1.4241013765 -0.2317444507 -0.3163307162 0.3239004435
H 1.4596112168 0.0761891424 1.9744947534 0.0912178655 -0.1146580786 1.1954114847
O 4.8660229965 -1.8159657938 1.6661252619 2.8157680630 5.6122107766 -4.5151454592
S 4.1997976287 -2.6495482975 2.7248353962 -3.0318058349 -0.8272782745 -1.7582893935
O 4.2603065856 -4.0720783937 2.2705992867 0.0166432111 -7.6842303571 -1.5481526069
N 2.6433632623 -2.1024068428 3.0918053859 -1.7530327304 6.4470778700 -0.3451715291
S 1.5320546944 -3.2497254589 3.6514499833 3.5835501816 -1.8296584096 -2.2245804109
O 0.8647939066 -4.0493739658 2.5723594140 -3.7060902722 -2.8860534226 -5.6759630283
O 2.0891906518 -4.1815931952 4.6846980777 2.9779743366 -3.9669138207 5.7779856983
C 0.2269007303 -2.3260038323 4.4777044268 -2.6349184392 2.7015062732 1.8894533817
F -0.3369463079 -1.4710998231 3.5380442741 -1.0818572994 1.5465028649 -0.5687027713
F 0.7986322487 -1.6546479362 5.5266647861 0.0887780790 1.3989202682 1.2596442006
F -0.7449274811 -3.1610844105 4.9600839575 -1.2174080483 -0.8148204736 0.4774340259
C 5.1516861054 -2.5346867774 4.2349522695 1.3039578581 -0.1960502599 4.5189501308
F 6.4391282090 -2.9500510624 4.0747377030 1.9653095612 -0.3582475885 -0.0626988646
F 4.5156593854 -3.3868697848 5.1348636127 -0.0357744786 -0.1959063228 1.1248801134
F 5.0954066754 -1.2270521164 4.6408880731 0.3606903649 1.6860164473 1.2295318081
40
energy=-60386.9891532634 config_type=IL_pair name=BMIM-NTf2 Properties=species:S:1:pos:R:3:forces:R:3
C -3.6765053472 0.5724664881 -0.4236484345 -0.9883213386 5.8630626622 2.1566053678
C -2.9569627036 -0.6454524368 0.0933658201 19.3462250833 47.2930913391 22.2850596099
C -1.5162125029 -0.3900158073 0.3911292193 0.8313869962 -1.4701587356 1.6915341350
C -0.7227203674 0.0649022964 -0.8132010491 1.1118016738 2.1561688960 -0.6212509359
N 0.6708945898 0.2835312348 -0.4003180199 -2.8893919593 0.6824100770 -1.3333079325
C 1.1977223057 1.4455300869 0.0645262544 3.2895150548 1.9351481161 1.4880196265
C 2.5370516216 1.2031222573 0.3319026986 -1.4283912975 3.6002698307 0.7113071352
N 2.7902716291 -0.0872283568 0.0264598423 3.2779400325 -0.9683603475 0.6905303833
C 4.0414344019 -0.8181862784 0.1319276782 1.2500782054 -0.8351281503 -0.4015297659
C 1.6541420297 -0.6563919710 -0.4219871859 -1.3366274443 -4.8600708489 -1.9437584887
H -3.1941077751 1.0217140828 -1.3050215795 -0.3625632290 0.2563008847 -0.0858297302
H -3.7962982970 1.3248995357 0.4051352880 0.3221106821 0.2790957005 -1.0863543425
H -4.7289578605 0.2618101324 -0.6485276924 0.8017065210 0.3550075075 -0.2106972185
H -3.1148985677 -1.4879113088 -0.6033451687 185.1229139531 -74.3927433007 -86.9318723727
H -3.4418186746 -0.9029635590 1.0585450366 4.1552884951 11.4441111449 3.7342604286
H -1.4569208539 0.3615823019 1.2029545064 -0.2268611587 0.2116564312 -0.0808184641
H -1.0913399207 -1.3656694221 0.7497108411 0.4960744421 2.1676059710 0.8208018922
H -1.1575405967 1.0015269015 -1.1896147188 0.3242820714 0.4176564235 -0.1423553176
H -0.6808112174 -0.6830378544 -1.6068802293 -0.3010278947 -0.2286989996 -0.1452746661
H 0.7088006548 2.3790162251 0.2086328502 -1.0616595072 0.9313513734 -0.0239643863
H 3.2914464123 1.8729735008 0.7131397588 0.4534746446 0.3671509390 0.2084482802
H 4.8492907077 -0.1912362105 0.5491322724 -0.2899090690 -0.0325819890 0.3855224347
H 3.8775302623 -1.7563198972 0.7090152088 0.2812759268 0.3048609620 0.1013499331
H 4.3812900634 -1.1081416024 -0.8832801733 -0.0296880587 -0.1576945675 -0.0661874576
H 1.5352200065 -1.7005203389 -0.7505865291 -0.0202752954 0.2539770569 0.2132710647
O -1.5150173310 -2.0393951024 -0.9431346941 -0.6346181812 2.9459946633 -5.5737218145
S -1.4609305008 -3.3639383395 -0.2324957543 -3.0224755546 -2.5346118732 -1.4006696920
O -1.5119613441 -4.4848194798 -1.2393359261 0.1995810028 -5.4939398224 -3.8072395005
N -2.7350949744 -3.5343592624 0.9073165976 -2.8965799387 -4.0496990134 5.2548059273
S -3.8230805125 -2.2164576737 0.7734011675 -7.1277083758 -31.6976751058 17.4753602197
O -3.5442019746 -1.3495037593 -0.4333671262 -197.5235668566 47.0722422036 30.0809896520
O -3.7491716037 -1.4033894803 2.0427329565 -2.8769262832 1.3075829507 12.9869181520
C -5.5191202645 -2.7432098289 0.6216817162 -2.8887979313 -0.9735088724 -1.2244636066
F -5.7183698723 -3.5319954128 -0.4941960001 0.0096170569 -1.1371307533 -0.6793631338
F -6.0043229543 -3.3270692318 1.7509865058 -1.1899549101 -1.0266995879 1.6838686838
F -6.2404359719 -1.5691476686 0.3651370936 -0.6293637844 0.8962374714 0.2657269378
C 0.1418681555 -3.4202878420 0.5676300511 4.3243890266 -1.1721327595 2.2480212356
F 0.3275135495 -4.6278491955 1.2307828018 0.4243047084 -0.0628590443 0.3843374510
F 0.2915607228 -2.3316425336 1.3872009289 0.6673151777 0.7257656782 1.4654783287
F 1.0675432005 -3.3177373907 -0.4779070675 1.0212744783 -0.3677804623 -0.5771408068
40
energy=-60441.6391705932 config_type=IL_pair name=BMIM-NTf2 Properties=species:S:1:pos:R:3:forces:R:3
C -3.7987671546 0.9147188961 -0.8756697380 -0.3205576916 1.1995625794 0.8469673087
C -2.8907348029 -0.3090353389 -0.6875360896 -1.4672154110 -0.6300469204 -0.8736949076
C -1.5308366596 0.1316695787 -0.1998967778 0.1621825745 1.5758760404 -0.4741355744
C -0.5966809101 -1.0388535711 0.0016635890 -2.1136975732 -1.9889870512 1.8022103939
N 0.7007724719 -0.6019577211 0.4682931176 -0.3170344617 -0.4077563130 -1.5006104476
C 1.1407135413 -0.4335485133 1.7383384294 2.3033803635 0.4551250246 2.3059946116
C 2.4623277125 0.0008942271 1.6318090987 -0.9519046748 -0.0896340399 3.5301203733
N 2.7990146287 0.0881889621 0.3214842946 -0.1534134604 0.2467792808 -0.5783359339
C 4.0485068142 0.4898402871 -0.2780817822 3.0440885887 -0.0935681843 -0.4942575784
C 1.7075414135 -0.2851035503 -0.3865091510 -0.1701097494 -0.1776126315 -3.4727346365
H -4.1162900216 1.2784926049 0.1367846736 0.2209393778 0.0724557915 -0.8345955008
H -4.7004980941 0.6516381705 -1.4323125438 -0.2852113271 -0.0783010765 -0.1952060938
H -3.2661090307 1.7287942369 -1.4183041479 -0.3366118062 -0.3262550478 0.2864665747
H -3.3689407569 -0.9542904774 0.0765352461 0.1974596919 -0.2964894247 -0.4545965435
H -2.8396100480 -0.8140949480 -1.6795821463 0.2301530377 -0.2694535815 0.6466268440
H -1.6884624048 0.6761243447 0.7463615333 0.3799049411 0.0677327542 0.0228995876
H -1.0967002038 0.8219907586 -0.9495067570 0.0120965981 0.0740088642 0.2628788362
H -0.5030822503 -1.6747241198 -0.8742707093 0.3201138071 -0.2181083633 -0.7974048268
H -1.0344161668 -1.6889989379 0.8119247432 0.4437891021 0.1282415240 -0.4404366202
H 0.5632642057 -0.6079012615 2.6337281921 -0.6106761933 -0.5637829189 0.7816231262
H 3.1290353390 0.2359383745 2.4508941808 0.5259010054 0.1442586683 0.2791152669
H 4.7389416262 0.8258968997 0.5236940326 -0.3234734383 0.2148627181 -0.1134935810
H 3.9266962526 1.2968984236 -1.0337753869 -0.1353031023 -0.2992985176 0.1700729540
H 4.5521625346 -0.4126780935 -0.7184886303 -0.4138118087 0.5521487458 -0.1633969202
H 1.6621519640 -0.3198992317 -1.4737375798 -0.1034996669 -0.0651377948 -0.1897334057
O -0.5355434695 -5.1118715735 4.3799381932 0.3507461322 -6.2021868094 4.7914638212
S -0.8185112246 -3.8693929067 3.5881847182 5.2758494425 -0.1717837352 0.7440028466
O -0.7141786555 -4.1719441117 2.1354878924 -0.2783129191 -0.5430568837 -8.5842855958
N 0.3631160973 -2.7073924184 4.1037549923 -0.5998272971 6.2506400803 2.8345674651
S 1.8993758421 -3.3817362604 3.6287206290 -5.5976753414 -0.3185954412 -0.8898734764
O 1.8193624951 -4.8777109400 3.5902717377 0.2832968480 -7.9190650815 0.3767746032
O 2.2705102916 -2.9025338326 2.2459752428 2.3352366712 3.7213476531 -6.7265067881
C 3.1986806252 -2.9170188154 4.7265110732 4.7786147161 1.8202492049 3.7102394859
F 4.3913389377 -3.4938133372 4.2806572404 0.5994078148 -0.4887547159 -0.2323998890
F 3.3931881369 -1.5528333150 4.6834837951 0.2513292706 1.7900456664 0.2567325943
F 2.9781579317 -3.3240177609 6.0162507311 -0.1752210987 -0.3281071397 1.5377489513
C -2.4680005123 -3.3523952421 3.9670261721 -5.3990173138 2.3417915736 1.3290857670
F -2.6597914521 -3.1678167124 5.3137298052 -0.3503663466 0.4916341694 1.5613269220
F -2.8334365682 -2.2249016619 3.2632055232 -0.5661648028 1.6288384512 -0.6129383647
F -3.3038131668 -4.3666199099 3.5559741098 -1.0398448004 -1.3075541813 -0.4560775850
40
energy=-60441.0760630279 config_type=IL_pair name=BMIM-NTf2 Properties=species:S:1:pos:R:3:forces:R:3
C 3.4250487473 0.7197465737 0.2010634168 0.7423403199 2.1912596260 0.5200604409
C 3.0165066221 -0.4835636653 -0.6217265818 1.1889905057 -1.4693914775 -0.5290273437
C 1.5060642254 -0.4540574622 -0.8877776047 1.0969844886 0.2502748267 -2.5253723067
C 0.7994904390 -0.4786528031 0.4241415510 1.6040362939 0.2089105603 1.6851354950
N -0.6414476681 -0.4538892058 0.2986000550 -0.1793081100 1.4304761773 -2.1446311479
C -1.5019322597 -1.5067564343 0.1964705036 -1.2823428010 -3.0047017782 -2.4180522428
C -2.7886214398 -1.0075406489 0.0965033589 -0.4243310279 -5.5590883156 0.7244391312
N -2.7050176320 0.3195421993 0.1375760637 -0.8300819128 3.3949035523 -0.8501773037
C -3.8290309389 1.2538910154 0.0628924575 -0.8047108951 1.0478891244 -0.9151064320
C -1.4136916675 0.6492284013 0.2590362037 2.2219086573 3.9485992036 0.2642150810
H 3.5774128811 0.4784112330 1.2643290147 -0.0178299126 -0.0631478871 -0.0465486754
H 4.3736511476 1.1709864688 -0.1788860987 -0.6001628099 -0.1662265940 0.2769304388
H 2.6136745791 1.4830604178 0.1521580565 0.7819018581 -0.0296995302 0.0058209644
H 3.5751122316 -0.5135322803 -1.5902186972 -0.4179674257 -0.0084500080 0.5010014981
H 3.3024348844 -1.3837898306 -0.0405065992 -0.1855939598 -0.1136166050 -0.4607271079
H 1.2412865648 -1.2941949026 -1.5476336684 -0.3321407108 -0.0470618662 0.0432417869
H 1.3366803409 0.5012309565 -1.4243581028 -0.4893643243 -0.3179371324 0.0071539160
H 1.1608414708 -1.3540199567 1.0165787028 -0.6971967846 0.2189684854 -0.1369858534
H 1.0856089166 0.4275980212 0.9962458141 -0.1587988855 -0.2464716851 0.0585905707
H -1.1576443452 -2.5307242063 0.2005631220 0.0931538117 -0.5161231460 -0.1715176217
H -3.6523537910 -1.6465778277 0.0046137797 -0.8605060063 0.1384811383 -0.5094262358
H -4.2837667278 1.1532373702 -0.9460000199 -0.1167019347 0.1052410254 0.2622410085
H -3.4719950716 2.2920818283 0.2270720280 -0.0087467989 -0.3552081485 -0.0747763097
H -4.5110915800 0.9791530364 0.8889967414 -0.1193615636 0.1475641154 0.9634255513
H -1.0572199291 1.6791317018 0.3164427920 0.1453471465 0.1508516873 0.0791282436
O -0.6944350392 0.2433537018 5.6349620032 3.4166075216 -0.3812447841 6.6819984504
S -1.3707461034 0.0568643419 4.3100486507 -4.4380942408 2.0201980794 1.4908950718
O -1.4247001816 1.3830183437 3.6092909635 -0.0939488633 6.0810555782 -4.5899682037
N -2.9327440870 -0.6022579768 4.5989877710 -1.7077932049 -3.0582281456 4.2921646809
S -3.9829302494 -0.3711170221 3.2645831585 4.2120640381 1.1719166692 1.7973579501
O -3.6160196192 -1.2571839528 2.0990394188 1.3254042123 -5.4733694347 -5.6118902474
O -4.0636927769 1.0547291313 2.8063118668 -1.3403912479 7.3667934098 -2.3907151307
C -5.6122232301 -0.9048947516 3.8047602231 -3.3553161265 -2.2419664713 2.1567371675
F -5.4926061855 -2.2407348416 4.1560283092 -0.5895235196 -1.1494473624 0.1173194932
F -6.0116696810 -0.1999988477 4.9065749029 -1.0735744569 0.8491902038 1.0033100844
F -6.4519911038 -0.7420696195 2.7200770668 -1.1138761108 0.0436395925 -0.5055668135
C -0.4250028360 -1.0546256836 3.3053833486 2.9287991711 -4.0027071576 -1.0354323071
F -0.3334149901 -2.2442999217 4.0126077611 0.6444674880 -1.2231451650 0.0718747145
F -1.0235698611 -1.2694084411 2.0990567807 -0.7396583452 -1.4640870668 1.9315248936
F 0.8201228975 -0.5084799409 3.0724870551 1.5720338218 0.1276579774 -0.0131160632
40
energy=-60439.8019828115 config_type=IL_pair name=BMIM-NTf2 Properties=species:S:1:pos:R:3:forces:R:3
C 3.7525509620 0.1036636133 -0.0749049886 2.9628680210 0.1993197625 -0.2877414789
C 2.8212706501 -1.0031225971 0.3471462982 -2.5856350472 1.7142297566 0.5822622071
C 1.4080078065 -0.5608689633 0.5697677568 -1.6271557250 0.5814478282 2.4616551472
C 0.7800218566 0.0365712235 -0.6701113518 1.1639887430 -0.9248276614 -0.7496457578
N -0.5936231273 0.4248126656 -0.3155207333 0.9870107894 -1.7606814379 -1.8059516176
C -1.0155982714 1.6061982383 0.1717161227 -2.6042566882 2.2627046020 1.2269611955
C -2.3881750487 1.4525016152 0.3330624594 1.1190235107 5.2142219671 1.7138271216
N -2.7599183611 0.2180486755 -0.0481184635 -1.4392039311 -0.2424999411 0.1911735658
C -4.1168011616 -0.3305546053 -0.0299421003 -2.4180006205 0.0360249311 -1.6475059725
C -1.6502170150 -0.4104714305 -0.4466973509 0.2172642167 -1.5645472677 -0.0020533936
H 4.6623217759 -0.4172056515 -0.4956266139 -0.6968273258 0.7991866434 0.1507518923
H 4.1384019533 0.6709486813 0.8051295616 -0.5370846176 0.1303224681 -0.5770031707
H 3.3571327318 0.7651385986 -0.8543421173 -0.0227463922 0.1925314286 0.0893423967
H 3.2024510510 -1.3939757967 1.3151224525 -0.7537516259 0.1339480610 -0.2402813404
H 2.7962142321 -1.8098474171 -0.4277894073 -1.6485879831 2.1188360738 0.4249381048
H 1.2852111425 0.0910061258 1.4553845164 0.1557831885 0.3841211328 -0.2580357498
H 0.8211543180 -1.4812062122 0.7798759242 0.4339879998 -0.2259941826 -0.2131940716
H 1.3355021836 0.8730075071 -1.0926633466 -0.0812325096 0.8023013170 -0.0861144617
H 0.7532240635 -0.7795127602 -1.4242291614 -0.6060663073 -0.0856526218 -0.1774920952
H -0.4045725413 2.4711826336 0.3836157197 0.5311149468 0.3635407907 0.0210461653
H -3.0282445978 2.2454378516 0.7162587462 -0.6180150166 -0.1541393350 0.0214974171
H -4.3296778159 -0.9333227656 0.8543280351 0.2585770678 -0.5692445655 0.4315723753
H -4.8759249558 0.4913330875 -0.0549059172 0.6907661678 -0.0787588025 0.1789559332
H -4.2917960580 -0.8952103846 -0.9864586028 0.3104320499 -0.0560459468 0.8328256972
H -1.6589157730 -1.4345519329 -0.8100974378 1.7118655502 -2.2744371930 -2.4177758392
O -0.8115390464 -2.4344410648 -1.8773299376 -3.3057436811 6.4426007890 -3.0225562095
S -0.3492138789 -3.5443613853 -0.9497689344 5.3878162443 -1.8374152121 -1.3254472740
O -0.1533595362 -4.8341305852 -1.7079471343 -0.2520133453 -5.8228669100 -3.2915235884
N 1.1232187998 -3.1752426227 -0.1621155520 -0.4181534562 3.7299368584 5.4523911443
S 2.4190548865 -4.0574613752 -0.8764369179 -4.6619687774 -1.2922761539 -2.1597603153
O 2.1041813801 -5.5137282083 -0.9903521466 -0.7174847301 -7.9056890420 0.9551814678
O 2.5948978561 -3.5411765253 -2.2743057587 1.8292850719 3.8016996927 -6.5318850677
C 3.8939673676 -3.7647746048 0.0672461241 4.6435347593 1.5827917333 3.7235349126
F 3.7513263452 -4.1677691151 1.3694437037 0.0870944307 -0.6168556436 1.7493636003
F 4.1164387931 -2.3972524039 0.0629031801 6.3510463573 -3.4863649997 -0.4614328847
F 4.9926863633 -4.3697992517 -0.4882994853 1.1494163555 -0.9307875360 -0.6671634359
C -1.6559267357 -3.7347806445 0.2657248975 -2.8217249885 -1.1027597134 3.4431263818
F -1.3479721880 -4.7475180729 1.1324802690 0.1255298941 -1.2924351305 1.2168776494
F -1.7409246024 -2.5633866304 0.9718872066 -0.8707418548 1.7328081057 1.4559242286
F -2.8387882151 -4.0362619100 -0.3730172840 -1.4284311373 -0.0039858867 -0.4027230119
40
energy=-60441.5265300917 config_type=IL_pair name=BMIM-NTf2 Properties=species:S:1:pos:R:3:forces:R:3
C -3.4209706432 0.4965115928 -0.4681883529 -1.0282282645 1.6197293178 -0.8049091308
C -2.8823221187 -0.9126075933 -0.5049455060 -1.5708911644 -1.5441427779 0.4023024589
C -1.3784196920 -0.8850635576 -0.5648548408 0.0476556799 -0.7447743471 -0.5039555022
C -0.8958506980 -0.1630997875 0.6849766010 -0.6610070618 -1.6221760188 1.0422624379
N 0.5555810664 -0.1578155832 0.5890069137 -0.0515871041 2.2121793607 -0.5363014273
C 1.4426225835 -1.0617305672 1.0423320770 3.1765556315 -3.0490579997 1.4741899949
C 2.7329779936 -0.6328629915 0.7176376085 -1.2294280364 -3.5392565757 2.0238999351
N 2.5919951306 0.5391708516 0.0652118979 1.7650403294 0.9666097166 -0.7049085859
C 3.7207402494 1.3077957543 -0.4408534063 1.7717764063 1.3798156147 -0.3662087320
C 1.2842505076 0.8265278134 -0.0131973635 -2.0138695841 2.8294449141 -1.4530471478
H -4.2930811610 0.5561741936 -1.1528999769 0.0350913859 0.2555282428 0.6195090806
H -3.7047320648 0.7976664905 0.5720422215 0.2068833702 -0.0658138266 -0.6626205093
H -2.6432981596 1.1483785961 -0.9158485494 -0.5231977060 0.3612451057 0.4469478882
H -3.1800866442 -1.4143592196 0.4431625003 -0.0012152679 -0.0039063931 -0.2430771362
H -3.3359508289 -1.4778077505 -1.3406557516 0.3665892774 -0.0088563534 0.0467365956
H -0.9868589310 -0.3218930236 -1.4177094221 -0.0835883066 -0.0599827762 -0.5727133529
H -1.0235619026 -1.9200212366 -0.6046711502 0.5824309714 -0.1563992971 0.0581949979
H -1.2952987511 0.8459554245 0.7514694971 0.0611257779 0.7036264044 0.1210364252
H -1.1404567985 -0.7321973123 1.6150068751 -0.3651448709 0.4202469735 0.2711087829
H 1.1734711735 -1.9775506868 1.5764273470 -0.2602641753 0.0008469299 0.0565207952
H 3.6667913694 -1.1282538226 0.9374055914 0.6411940684 -0.0823429790 0.0013280891
H 4.5360888333 0.6028766769 -0.7201333414 -0.4533049867 0.2300592432 -0.3886167260
H 3.3972208241 1.9743717951 -1.2639802856 0.1148345485 -0.4057318653 -0.1538856883
H 4.1583830055 1.9637305701 0.3419556787 -0.3138840015 -0.0634059925 0.1898646208
H 0.9207656567 1.7261033737 -0.4975902053 -0.4823621793 0.3120769749 -0.1024971609
O -1.5279932869 2.3523906348 3.5318600987 -1.6397163258 5.5807263630 -5.2349815873
S -1.1276636034 1.2074306311 4.4057593720 -3.6925637002 -0.7307165447 0.9778726376
O -1.3750616279 1.5412871676 5.8546734682 -0.7572007033 0.9339070281 6.7868643998
N -1.8121235204 -0.2782423140 3.9326084604 3.8035264747 -3.7080733250 -1.5747823212
S -3.5066430837 -0.3357918604 3.9027413213 3.3000566185 -2.9262236574 -0.2034040785
O -3.9899973667 -1.4770606410 4.7734160944 -1.8340747551 -4.4486547681 4.4823925677
O -3.9338504497 -0.6231474549 2.4890917156 -1.8391766778 -0.3994911251 -7.3343560267
C -4.3288952719 1.1055872654 4.4612978465 -4.2004816293 5.8657191360 1.0231687758
F -5.7031238409 0.8544086848 4.3572645570 -1.0385362452 -0.4418614393 -0.0578318195
F -4.1056169924 1.4025492699 5.7699615279 0.7091798357 0.8454023980 1.8111603802
F -4.1156293532 2.1811480588 3.6020988213 0.4753491628 1.0312908453 -0.1554735721
C 0.6524310268 1.0343749739 4.2203192639 5.1149255196 -1.4393911285 -1.5195106451
F 0.9608248070 0.7479236489 2.8880630265 0.4044076724 -0.0527376592 -0.9524530035
F 1.3209867967 2.1853547520 4.5542489289 0.6045564994 1.4578417069 0.4502986512
F 1.1481992449 0.0122160069 4.9767693126 0.8687492230 -1.5291689332 1.2397666208
40
energy=-60436.1897737487 config_type=IL_pair name=BMIM-NTf2 Properties=species:S:1:pos:R:3:forces:R:3
C -3.4593310105 -0.4976434221 0.8595196275 -2.1814880345 -1.3649031776 0.0114949140
C -2.2511190977 -0.4210399206 -0.0679591116 -0.7025270774 -1.0304065053 0.2607032091
C -1.7181561294 0.9683144275 0.0121500669 -0.8956004679 1.6883987664 -0.4137707486
C -0.5263153748 1.2534211264 -0.8270131669 -1.9316453677 3.0739074528 -3.2680507311
N 0.6387461963 0.4705775234 -0.5627981419 0.8808553667 0.3947832722 0.5840715460
C 0.9308884997 -0.7082315423 -1.1580052864 1.3876756336 -3.6852407314 -1.4566634324
C 2.1457268503 -1.1830216918 -0.6526579330 -3.2469066563 -1.2687119612 -3.0201492830
N 2.5600766262 -0.2702084529 0.2432406115 1.7243186625 0.7238260258 1.3737963870
C 3.8018835449 -0.3765546408 1.0149745240 1.5157478411 -4.6170543880 -4.2945079289
C 1.6473397577 0.7435148667 0.3058675568 0.5132882781 1.9965147994 1.6640879517
H -3.7352358621 -1.5679878443 0.9731628025 -0.0588080218 0.3978069459 0.1561296091
H -3.2763611059 -0.0813836456 1.8542516149 0.1550124109 0.1137095992 0.0612791815
H -4.3456507063 0.0020047909 0.4022042857 0.5203939797 -0.0346952879 0.3547019158
H -1.5386837135 -1.1847246161 0.2908270182 0.1878875729 0.0326586699 -0.6340355938
H -2.6433696085 -0.5911394163 -1.0795620273 0.5351552183 -0.7368263902 -0.3107272919
H -2.5281074024 1.6394144883 -0.3679269517 0.5740554799 -0.1710462192 0.2264947727
H -1.5322231210 1.2526652938 1.0771323891 0.5636375318 -0.1209628971 -3.3675642552
H -0.3325936759 2.3492652876 -0.7553113388 0.6692355124 -0.4140995776 0.1279970632
H -0.8238130224 1.0952697271 -1.8972871659 0.6513873589 -0.1653796993 0.3105184880
H 0.3146084991 -1.1966471367 -1.9052939544 -0.4655983339 0.0879644024 -0.2644434617
H 2.6191211409 -2.1044416063 -0.9514870475 0.7380559235 -0.4811775240 0.1928975354
H 3.8308939467 -1.3579199540 1.5078581473 -0.1205072975 -0.2191193235 -0.2591438168
H 3.8211028731 0.4080370815 1.7912204936 -0.3501157695 -8.0051988142 -8.1255562525
H 4.6952236417 -0.2739699500 0.3724111036 -0.4142805341 -0.2666089137 -0.4176611978
H 1.7053482539 1.6324292267 0.9436679666 -0.0151811583 0.0053328328 0.2524047838
O 2.1636681855 1.1753932554 5.9528189142 1.1223461211 2.5465429617 7.1840791829
S 2.1603918459 0.8028883807 4.5035748406 -6.4382699240 -1.2696882812 1.1019644770
O 1.9726699244 -0.6836710634 4.3364738632 0.2355956382 -6.7439206804 -1.7127643480
N 0.8670299172 1.6717410767 3.7574310598 0.8414900034 5.1832265089 -5.6715163426
S -0.5936994700 1.0590302894 4.4459071086 4.6848096800 -1.8279241405 1.6152840664
O -0.5945296632 -0.4308573386 4.2385804028 -0.9021796382 -7.0965891509 -1.9593943570
O -0.6778925214 1.3410543809 5.9087436696 -1.1551713612 2.7167869745 7.4354756278
C -1.9970638394 1.6827613674 3.5387026713 -3.6819349809 3.6672255455 -0.5219763964
F -1.8480502434 1.2498434337 2.2497438381 -1.1809080589 -0.4498044614 2.3690091667
F -2.0293755407 3.0552157115 3.6151024082 -0.3616973166 1.5987143159 -0.6183467395
F -3.1770029119 1.2075164776 4.0539270015 -1.1953950574 -0.7046677932 0.1472821431
C 3.7317372928 1.2575083582 3.8272860560 5.3828888267 2.2731937471 1.5532462068
F 3.8399589756 1.0192110081 2.4835391470 1.2567843593 13.4120628004 9.8488199475
F 4.0439799229 2.5555206706 4.1536258470 0.5403875918 1.3178290216 -0.5548893861
F 4.6815517198 0.4540513533 4.4473300441 0.6252633016 -0.5699066720 0.0203121724
40
energy=-60436.9898167230 config_type=IL_pair name=BMIM-NTf2 Properties=species:S:1:pos:R:3:forces:R:3
C 3.9991472455 -0.4701594222 -0.4557929101 3.6960054162 -1.1470009005 -1.0634036108
C 2.9535877158 -0.0569114366 0.5239863755 -1.6559777569 -0.2583865612 2.5996514555
C 1.5607453992 -0.0069075931 -0.1026139577 -1.6876218977 -2.1931966095 6.8668008735
C 0.5471873560 0.4214009559 0.9538372230 3.8568596626 1.4766078403 1.7405327666
N -0.7897701029 0.4920464901 0.4399193055 -1.0111536565 -1.7976010751 0.9425435288
C -1.4364808395 1.5302865383 -0.1251626722 -1.4811865069 2.7538271768 -1.4419990450
C -2.7222339746 1.1298036235 -0.4717483543 1.7733642640 4.0894315336 -0.7398981127
N -2.8358143797 -0.1560703203 -0.1081991035 -0.6871466756 -1.9589198183 0.5095698214
C -4.0308206073 -0.9453709696 -0.2988601715 -3.5676543387 -1.0534558784 1.4002572280
C -1.6618145149 -0.5595663784 0.4507101277 0.6216954857 -2.1413494357 0.5186306326
H 4.9900613290 0.0342923798 -0.2592361220 -0.9188165651 -0.3087534906 0.0043453764
H 4.2317434090 -1.5667926806 -0.3415008589 -0.4583641954 0.8543163719 -0.5791929859
H 3.7568934658 -0.2188051751 -1.5116206555 -0.1602745954 -0.3723641837 0.5072806770
H 3.1785531963 0.9225210658 0.9826994590 0.0458921971 0.0513242066 -0.1268926635
H 2.8581865926 -0.7789877224 1.3741467442 0.8024817074 0.3125489851 -0.2568345949
H 1.6315386062 0.6935610178 -0.9374896214 -4.0876606194 1.1115148341 9.7636028870
H 1.2419923337 -0.9942384064 -0.4584911056 0.2366890711 -0.1290490441 -0.3027104347
H 0.8736647009 1.4507742841 1.2747591497 -0.7164783522 -0.5436042907 0.0248966779
H 0.6735304535 -0.2283393465 1.8290164149 -1.0247400469 -0.2861339830 0.5248233771
H -0.9731556296 2.4983046051 -0.2599059580 0.2797666286 0.4977972914 -0.0555342664
H -3.4395912344 1.7896758540 -0.9435406232 -0.8004243810 -0.2554639995 -0.3282626600
H -4.4684946888 -0.7989846924 -1.3073640453 1.1279189900 -0.2318742794 -0.9770725004
H -3.8627327633 -2.0166913269 -0.1106126565 0.3767577280 0.0268533338 -0.1859092670
H -4.8297995058 -0.6129386186 0.4157545598 0.6205371557 -0.0185701992 0.0581773253
H -1.4461235626 -1.5519027255 0.8428321369 0.0066145299 -0.2980137475 0.0761609862
O -2.1152561676 -1.2731951425 -4.9043749533 1.1812885542 -4.0027135532 -5.8307437983
S -2.5520744484 -0.4415159640 -3.7360309118 3.9506206526 -1.5285703185 1.2565454726
O -3.4319875557 -1.2046872091 -2.7895640337 -4.9069813724 -3.1130922040 4.9591182081
N -1.2127190165 0.2405740328 -2.8828948164 -0.4656357880 4.6701560383 4.5580522515
S 0.2145951400 -0.4103002496 -3.5853638189 -5.1791917939 -1.7911460208 -1.4154374781
O 0.0041157310 -0.3343164399 -5.0832366483 0.6940836990 1.3695000144 -6.5692138533
O 0.3575496745 -1.8189427811 -3.0982196283 1.7118339289 -6.6678016107 3.1876045228
C 1.6587229202 0.5548775464 -3.2182671095 4.0124188232 3.8441270112 -1.9422624155
F 1.5240115751 1.8364866876 -3.6920764354 0.0533009055 1.5310440336 -0.3571868770
F 1.9079645225 0.6166765882 -1.8635122163 6.3231678660 1.5793280839 -14.7753093848
F 2.7164178379 -0.0415777374 -3.8778009389 1.0879978813 -0.3771549154 0.0253494248
C -3.4916489639 0.9160206834 -4.4059672975 -0.6034018574 4.3900015050 -2.7900171694
F -3.9406080925 1.7343182476 -3.4173617740 -1.6574432315 1.4541566731 1.5211246827
F -2.6127949231 1.6700826024 -5.1879697183 0.4384629188 0.7342408713 -0.6320737360
F -4.4497395905 0.4246717991 -5.2472232965 -1.8360412871 -0.2704966847 -0.6802886209
40
energy=-60428.6345837077 config_type=IL_pair name=BMIM-NTf2 Properties=species:S:1:pos:R:3:forces:R:3
C -2.6399870405 0.8929481144 -0.7537036668 -1.0765510813 0.5480020046 -1.8620710825
C -2.2313297123 0.2964386672 0.5585892285 9.8738379775 -7.5724827406 -15.7419691868
C -1.8838361925 -1.1577842706 0.3414214111 -2.1675868094 -1.6088589675 2.5927630327
C -0.7582979854 -1.3597099501 -0.6045181774 0.1674373979 -1.0936934038 -3.9692371492
N 0.4933827344 -0.7658294594 -0.2103663516 -1.6137971590 -3.4536953778 0.3392301632
C 1.4040013662 -1.4467872557 0.5434774679 3.1339224558 -1.8401542571 2.4677028490
C 2.5036456901 -0.6536884122 0.7734873958 -0.7913522067 -3.0376560345 0.8937696129
N 2.2519267249 0.5220326165 0.1492169479 2.4713466629 1.6013731044 0.1779606359
C 3.1519363973 1.6620332906 0.1307797694 0.9997180720 2.5433980238 0.1193912843
C 1.0375526092 0.4172799141 -0.4295693755 -1.7447929186 5.8843635604 -3.3000292549
H -3.0297137379 1.9300392697 -0.6533426353 -0.1363153124 -0.3076173838 0.1301850237
H -3.4160003029 0.2168631179 -1.2044445479 0.5823018176 0.8989346075 -0.3106710721
H -1.7443159942 0.9874095553 -1.3947259128 -0.4817314037 -0.1620058741 -0.4981660619
H -3.0995992510 0.4045381901 1.2607815465 -9.7816483334 -7.8790082122 -0.6544882430
H -1.3692105944 0.8715439773 0.9582009735 5.5910702468 -3.3593853661 -3.3529528505
H -1.7063185561 -1.5781972320 1.3561866781 0.5946741077 -0.2345416108 -0.3944799462
H -2.7462280831 -1.7346518202 -0.0498589703 -0.0008087960 0.0611481381 -0.1380962264
H -0.5690324545 -2.4270797678 -0.8451696973 0.1584566909 0.0389028615 0.4411229536
H -1.0952507996 -0.9275004384 -1.5923790873 0.5746988351 -0.0792244298 0.6120367545
H 1.3145486793 -2.4493231283 0.9198188409 -0.6295930798 -0.7978465680 0.0267752508
H 3.3827651800 -0.9045437422 1.3300441679 0.9330457980 0.0559914491 0.4539163200
H 2.9775845213 2.3308784642 1.0235737810 -0.1620213557 -0.6463241358 -0.0423616166
H 2.9687722632 2.3068869757 -0.7517514198 -0.0089381719 -0.4355520862 -0.1389136231
H 4.2149966367 1.3504785750 0.1418623999 -0.2652777965 -0.2476717195 -0.1131623026
H 0.5880079017 1.2157247488 -0.9976107663 -0.2650434513 0.3696620921 -0.2738063233
O -2.5602828765 1.0730894255 1.6463645654 -2.9430035210 0.2237594685 12.4016071063
S -2.8095230758 2.4117816466 2.2353909116 1.5970643604 12.2688393464 7.9746832685
O -2.8453966975 3.4730986840 1.1877591970 -0.3735984825 5.2386712505 -5.6211338861
N -1.6741478487 2.7685000745 3.4724042836 -1.4657533367 3.9687009386 4.0074691065
S -0.1702083711 1.9807566516 3.2858814769 -3.9791014385 -0.2903817696 2.7179898091
O 0.3174274102 1.5254658653 4.6420109892 2.2480137918 -0.9370657269 6.1255502282
O -0.2188095423 0.7887593589 2.4099854828 0.0396085907 -6.7846670022 -6.9267680164
C 1.0005026946 3.1936671760 2.7224438330 2.3991794723 4.2817545001 -1.4327578139
F 1.0512766214 4.1760324541 3.6974442325 0.6684085449 0.8644857025 0.3947381765
F 0.5962673009 3.7490542342 1.5270254869 0.1958832688 0.7324585871 -1.2870905960
F 2.2177793751 2.5511804302 2.5855597620 1.6870848032 -0.0363281995 -0.1676105533
C -4.4127363784 2.4983520659 3.0458088905 -3.0030644391 2.5574530241 3.0840511374
F -4.3998333897 1.5657504734 4.0405108432 -0.8459893477 -1.0826814649 1.3361679141
F -5.4262909647 2.3535284914 2.1467948705 -1.4877311393 -0.8190554772 -1.0326675204
F -4.4948266592 3.8073027969 3.5347307693 -0.6827525907 0.5652533861 0.9621780978
40
energy=-60412.0478667149 config_type=IL_pair name=BMIM-NTf2 Properties=species:S:1:pos:R:3:forces:R:3
C -3.4256116933 0.8250779396 -0.3615406380 -1.3460353239 2.1889009851 -2.4562334781
C -3.0760143353 -0.3730631138 0.4582808282 -0.8765899367 -1.0042535040 -0.2452023212
C -1.5961915722 -0.3706567987 0.8564423733 -18.7493007399 13.4390248190 -33.4620987253
C -0.7888058381 -0.3772078287 -0.4004229155 -0.0422863235 0.0005647340 -3.7043089222
N 0.6470070461 -0.3755685854 -0.1467971046 -3.6421361072 -1.0454644309 -1.2530109105
C 1.3879206718 -1.5087471080 -0.0098250021 2.9947196625 -3.2814298124 0.6894269841
C 2.6937916303 -1.1091710791 0.2187117807 -0.6612382931 -3.6975843928 -0.0658004799
N 2.7420604251 0.2462327318 0.2199513068 1.7467596401 0.2106135623 0.2296932467
C 3.9299581085 1.0532037324 0.4254263884 1.4546534761 1.0237456556 0.0536985934
C 1.4766170732 0.6631432587 -0.0058317175 -0.8860801438 6.3839234805 0.1685997919
H -2.6450160072 1.6170780900 -0.3758202418 -0.2401001340 -0.3366422540 0.1976324415
H -3.5872279939 0.5088258019 -1.4273243715 0.0412001668 0.5216790437 0.6523203033
H -4.3635160882 1.3272815911 -0.0167338532 0.4724636593 -0.3887117087 -0.1625531701
H -3.3429631785 -1.3001920244 -0.0642234366 0.2386117784 -0.1675908947 -0.2629439494
H -3.6801348756 -0.3518493420 1.3891351209 -0.0050654291 0.8803159133 -0.4647044327
H -1.4076491755 -1.2925832486 1.4531893886 -9.2486224459 -27.0237637304 -12.5707871627
H -1.3620412207 0.4696215741 1.5135445606 -2.5466470722 13.7835268424 -4.5999018359
H -1.0586199989 -1.3014155032 -0.9760755242 0.3261832887 0.3839268830 0.0918138573
H -1.0902655533 0.4751520830 -1.0400059682 0.6419334371 0.1288951073 -0.0138017046
H 1.0271634428 -2.5440486214 -0.0679904262 -0.2618101432 0.3518620953 -0.0968364487
H 3.5395136387 -1.7586761547 0.3716029575 0.7611886367 -0.1980486602 0.1314913668
H 3.8533838649 2.0345907464 -0.0768596236 -0.3430743457 -0.0074123651 0.0995578905
H 4.1462041964 1.2058632704 1.5022251991 -0.0801594299 0.0196505574 -0.0023329673
H 4.7761840120 0.5315304617 -0.0392955997 0.3302152118 -0.2045189046 0.0313165244
H 1.2042534209 1.7055781272 -0.0595676046 -0.2749583208 0.4277429006 -0.0801162051
O -3.5615307718 -1.1638063877 4.7404049338 0.1138433194 -0.3435212703 7.1977926257
S -3.2106787042 -0.9596332400 3.2936472628 -5.6942062574 -1.5303737529 1.4857611398
O -3.5791873616 0.4466138507 2.8488397537 -1.1184951771 6.0859801881 -2.0004660822
N -4.0182071095 -2.1423958433 2.3502324398 1.8581986517 -1.7972303666 -4.9488290479
S -5.4283019834 -2.6366921245 3.2345847191 3.2990490139 -1.4639981425 -0.0309743854
O -5.0837238981 -2.7464988936 4.6867637009 0.6194268212 -0.4962450824 7.7205665204
O -5.9368734080 -3.9751186921 2.7898834915 -2.6629508588 -6.1818565362 -3.6378508016
C -6.6922522516 -1.3933780098 3.0022745751 -2.3219865062 4.4697829707 -0.8286275442
F -6.9892452508 -1.2797937738 1.6691407830 -1.2427669506 -0.0071081334 -1.6659223089
F -7.7663300726 -1.5965343081 3.8151819683 -1.9223946891 -0.4852584098 0.6204077112
F -6.1231642852 -0.1896153199 3.3776005833 0.4852525323 1.6682344396 0.5233578622
C -1.4351362113 -1.0317529531 3.1140535289 1.7356841680 -3.1944931673 15.3735153009
F -0.9454347600 -2.2571030893 3.5029637349 1.2039957422 -0.9884046845 0.4389272183
F -0.9525458882 -0.0329617948 3.9708027455 0.4951224582 -0.0567525011 0.2266512153
F -1.0627468941 -0.6613674850 1.8422213063 35.3467326266 1.9249545954 36.6440735100
40
energy=-60442.0006732564 config_type=IL_pair name=BMIM-NTf2 Properties=species:S:1:pos:R:3:forces:R:3
C 2.5779846256 0.0184794745 1.2747198480 2.0564773090 0.6016249793 2.0268675249
C 2.0822570160 0.9060538157 0.1548546164 -0.2564112033 1.8345588596 0.7836613224
C 1.9183873975 0.1695136552 -1.1377315145 1.4540039594 0.5852042035 -1.9627750931
C 0.9294322832 -0.9629702577 -1.0560004902 2.2237548079 -2.6456860642 1.9467030819
N -0.4012344586 -0.5486780855 -0.6979317383 -0.2226366214 -0.0790271718 -1.4733345877
C -1.3268039815 -0.1937926105 -1.6333103146 -2.8780864221 1.1326488799 -2.7606805958
C -2.4991029702 0.1506338278 -0.9844904626 -0.1715853388 0.3423112167 -4.5470136850
N -2.2602427066 -0.0024475979 0.3297852897 -1.8403232947 0.3898554067 1.7771924234
C -3.2712547391 0.2683513368 1.3477268416 -1.1157677367 -0.7531398111 1.8752990660
C -0.9964583122 -0.4235254678 0.4985477904 1.5406921521 -0.2696049134 2.8671255211
H 1.7881290195 -0.4208861743 1.8917237390 -0.1291034858 -0.5081591599 -0.1821528707
H 3.3112334969 -0.7225406361 0.8988645519 -0.4822937453 -0.1043685131 0.2496807940
H 3.1590178214 0.6901724445 1.9702425111 -0.4980130062 -0.7785085507 -0.3727217125
H 1.1225618375 1.3689921748 0.4688779848 0.4004419006 0.2314171337 -0.2272422391
H 2.8499258092 1.6944063166 -0.0150900047 -0.5892766213 -0.0423001078 0.0695743880
H 1.6868530118 0.8881861828 -1.9339292372 -0.3418293225 -0.0130151852 -0.3225267337
H 2.9124947442 -0.2525174673 -1.3895987039 -0.3153693139 -0.1836638709 -0.1490826666
H 1.2714432296 -1.6264515531 -0.2080476394 -0.2471123547 0.2727852508 -0.6515152334
H 0.9142294593 -1.5970222319 -1.9404371911 -0.3229612493 -0.1502347643 -0.7883168948
H -1.1732756152 -0.1818506795 -2.7142859942 0.4012882393 -0.1671050387 -0.0316224601
H -3.4481945937 0.4851906500 -1.4312993234 0.1630792755 -0.1037311798 0.3614702323
H -3.1365317205 1.2691495060 1.7730048213 -0.0365624845 0.4343903601 0.0910586432
H -4.2921053803 0.1324140649 0.9399001465 0.2942577137 0.2922807102 -0.3085803863
H -3.1707643744 -0.4847228781 2.1557513892 0.3133231655 0.0785825562 0.1583045421
H -0.5479808994 -0.6241378101 1.4381530844 0.5267832173 -0.8953931700 2.3668327711
O -0.9690559540 -1.6041636663 3.3789919364 -0.5146452460 8.0013246312 -3.1283190695
S -0.8105866477 -3.0674351303 3.6779706854 -4.2853377818 -1.5101642661 1.0773265933
O -0.8035148883 -3.2565082716 5.1726047693 0.4802022354 -1.1386278661 7.1187077686
N -1.9611639005 -4.0546391115 2.8971806672 0.8039674961 -0.9383950976 -5.6517136611
S -3.2627626256 -4.5467955467 3.8793208098 3.9562255539 -1.6451858670 -0.5845475220
O -2.8795302650 -4.8502680292 5.2967208294 1.6273392632 -0.8312618997 7.3795030234
O -3.8560379736 -5.7886069606 3.2306607643 -2.6612738462 -4.4427529424 -3.3718215562
C -4.5532023433 -3.3095343180 3.8095483104 -3.3437992921 2.7699488529 -0.4265856638
F -4.9173155398 -3.2393785207 2.4734548131 -0.6921217183 0.9014708918 -1.0148702662
F -4.1434275027 -2.1015208799 4.3229264791 -0.1239902742 1.5766945383 0.1825814994
F -5.6041106371 -3.8300893850 4.5387664440 -1.3180747205 0.1394223322 0.6844217601
C 0.8203300257 -3.5430399608 3.1026319194 4.5331532474 -3.5591148860 -2.0690464330
F 1.8158822055 -2.7968077161 3.6813199044 1.0425371275 1.3258247526 0.2402844020
F 0.8712882101 -3.5102898841 1.7186537658 0.5429135129 0.5356885511 -1.4174011288
F 1.0902655922 -4.8671568207 3.4687813362 0.0347916847 -0.7000694105 0.1911953728
40
energy=-60413.1471506426 config_type=IL_pair name=BMIM-NTf2 Properties=species:S:1:pos:R:3:forces:R:3
C 2.6398519232 0.6799517876 -0.7841005415 1.3014158843 1.3539999780 -1.3526167358
C 1.9297461922 0.9407069117 0.5148862243 -1.0686331373 1.5770547231 1.0340253352
C 1.7060713917 -0.3409337759 1.2994600158 1.9239400436 -0.0162570937 1.0400268783
C 0.8746960729 -1.3273377552 0.5354457799 4.1996840357 3.9545141204 3.9275400647
N -0.4296929981 -0.8386075922 0.1975439500 27.8544787073 33.5845943089 33.2197130843
C -1.5266088639 -0.9932169551 0.9958082612 -8.9063716178 7.2722542616 16.6324463913
C -2.5974625378 -0.3976595569 0.3464983185 -2.0257305057 0.4508567195 4.6800348127
N -2.1578350842 0.1061464509 -0.8190004167 -3.9012497080 3.5511996504 -1.0595310333
C -2.9846379194 0.8164418603 -1.7996205998 -0.2938535705 1.2983170978 0.0236224894
C -0.8445980303 -0.1742023359 -0.8839364651 4.1564367667 18.4700789695 -11.3840378039
H 3.6812729083 0.3818095057 -0.5288830598 -0.4113852919 -0.1579011534 -0.6688561278
H 2.6694832060 1.6621322943 -1.3243350895 0.2755070436 -0.8543618499 0.0235711917
H 2.1379772419 -0.0532201195 -1.4328553707 0.2406814607 -0.0130315775 0.0695305815
H 2.5610227902 1.6036545168 1.1251017195 0.0442897254 0.1477274877 0.0420918755
H 0.9823117133 1.4955644008 0.3421448944 0.1099683613 -0.3540389629 0.0540656277
H 2.7234894695 -0.7919710080 1.4162102175 -0.5690613549 -0.0519737405 0.0897290597
H 1.3553554061 -0.1553274333 2.3123647863 -0.5373612735 0.2190169407 0.4805694561
H 0.7621411195 -2.2395798590 1.1554663490 -0.9624741805 0.4024357253 0.1268569734
H 1.4503064898 -1.6440630286 -0.3576430936 -1.2681358429 2.6982168827 0.4619102468
H -1.5291690093 -1.5016941951 1.9701103239 0.5696509140 0.7167542742 -0.3921119019
H -3.5964856357 -0.3799678899 0.7701779711 -0.0659106871 0.8281255885 -0.3340647360
H -3.7840190957 1.3362256520 -1.2042779656 0.2914496383 -0.3749028723 -0.7202453356
H -3.4285490913 0.1055494436 -2.5460823790 0.2043114361 0.3780780767 0.4387266648
H -2.3576915977 1.5878163938 -2.2869462569 -0.0881968372 -0.0073822690 -0.1769044378
H -0.2369760609 0.1217822871 -1.7286685035 0.4898699830 -0.2157276935 0.3441617562
O -0.9402918120 -1.5495668651 -0.3718701766 -24.0782595340 -37.1204912622 -44.2142246612
S -0.8902285531 -3.0400622639 -0.3822962685 -4.4494299568 -16.7052906989 0.3328880643
O -0.9218631576 -3.5011777246 1.0388192099 0.8766405174 -4.2256398603 7.8329660011
N -2.2313467279 -3.7664733613 -1.1890695933 1.9837105087 -5.3177170882 -3.9825659577
S -3.6171562860 -2.8042996827 -0.8537829720 3.5259064560 0.1607293114 1.7768148203
O -3.4827619969 -2.3688540152 0.5926151642 -1.2897096526 -0.7652228323 6.3627879945
O -3.6204159698 -1.5934446094 -1.7007427254 -1.4230395794 5.4297804921 -6.3535478667
C -5.1304114126 -3.7258402799 -0.9582334858 -5.7448404452 -2.8649208310 -0.4923188494
F -5.3558249405 -4.2768594716 -2.1927177236 -0.2760483417 -1.2207548011 -1.2291271078
F -6.1451351291 -2.7817100060 -0.7561796292 -0.5502300671 0.5803583615 0.1613756721
F -5.2259444435 -4.6344689419 0.0744884871 -0.0339219963 -1.1027304825 0.4942294075
C 0.6514368910 -3.5467418753 -1.0953565181 3.7879927603 -3.9798433925 -3.8221237377
F 1.6540499266 -2.9147358865 -0.3834620819 4.9746434823 -7.0063326695 -2.2731900342
F 0.7555009006 -3.1859660127 -2.4167954364 0.3449797716 0.5011941968 -1.3273785980
F 0.8064341289 -4.9202409822 -0.9965153289 0.7973269034 -1.2216154714 0.1259834660
40
energy=-60437.5532366990 config_type=IL_pair name=BMIM-NTf2 Properties=species:S:1:pos:R:3:forces:R:3
C 3.4870424353 0.9074692969 0.5324539224 2.1758652701 1.7119672204 0.9231715735
C 2.9841593337 -0.0478383838 -0.4967604526 2.3238817845 -1.1758455025 -0.9238329836
C 1.6247041832 -0.6377540324 -0.1005122638 1.8983684277 -2.7604986249 5.7822557919
C 0.6887969665 0.5314724982 0.0264956176 1.9575589662 3.0063638318 0.6693452717
N -0.6510625252 0.1939806385 0.3940670381 0.1269365286 0.2709225826 0.6258349236
C -1.1437236636 0.1003065323 1.6480194754 -1.5493450073 -0.3670956787 4.4451480891
C -2.4757341875 -0.2466320003 1.5925750160 1.6522939768 0.4408687507 2.8119826640
N -2.7582530664 -0.3558045209 0.2717842185 -1.1314349209 -0.4967243826 -1.4324196326
C -4.0456983924 -0.7054255267 -0.3076303597 -2.6554905567 1.0084424333 -0.4707318258
C -1.6452830617 -0.0867374981 -0.4477230809 -0.5841673954 0.2868573615 -2.0723681349
H 3.2539894824 0.5293460821 1.5437470133 0.2146891825 0.3683545716 -0.0032296870
H 4.6065103222 0.9826552711 0.4079922189 -1.0171186211 0.2702869170 0.4701553977
H 3.0445721552 1.9244405347 0.3655631564 0.4637086893 -0.6576598840 0.4744671412
H 3.7185029263 -0.8858226960 -0.6709451971 -0.6217107068 0.5938578430 0.3641130626
H 2.8870982934 0.4579480014 -1.4853133052 1.0018359733 0.1203311393 1.2632204687
H 1.3689244549 -1.3769021850 -0.8535604103 -0.6999650844 -2.2445018296 2.4416437595
H 1.7521074872 -1.1602698396 0.8683562030 -0.1479953759 0.4546890845 0.5372780334
H 1.1689745066 1.2172054345 0.7748543844 -1.1067555305 -0.3937995261 0.0397000176
H 0.6555315690 1.1318011575 -0.9054176668 -0.2364337903 -0.1112587464 0.0141209731
H -0.6293589330 0.2591785104 2.5857406084 0.8682637975 0.2318686218 0.1491872628
H -3.1377008612 -0.3953039612 2.4382785996 -0.5926416387 -0.1593862172 0.0180617857
H -4.8267109598 -0.6228192260 0.4850145851 0.4546905963 -0.5370362953 -0.1709416908
H -4.3517279428 0.0522759772 -1.0758382356 0.4990045389 -0.3464794517 0.2437493879
H -4.0424031495 -1.6793646169 -0.8206265492 0.1120520133 -0.2651848879 0.1980164917
H -1.5332573730 -0.0874054479 -1.5410722671 -0.2217952212 -0.9272831826 -3.7303804573
O -2.3972598702 -0.0053315164 -5.6170787281 -0.1910835998 4.6477493077 -4.5797282872
S -2.6570110283 -0.8642671660 -4.3950256797 4.9440148331 0.3922968788 -1.7711103206
O -2.6541982433 -2.2897975672 -4.8482668148 -0.6946767682 -7.6558270518 -1.0828092032
N -1.4570466022 -0.5946402123 -3.1903483458 -0.9983480560 2.3981141727 7.5497562439
S 0.0749173539 -0.7461348918 -3.9716635607 -4.3564875721 -1.9138701382 -3.0615675977
O 0.3752479899 -2.2156626990 -4.0658719195 2.3068302125 -6.9640399602 0.7639775783
O -0.0916835628 -0.1848726943 -5.3690245417 0.7676628699 3.3246508182 -5.4845269705
C 1.3449713464 0.1210300224 -3.0901094214 2.3577495826 4.0090077410 0.3137690593
F 1.4328452934 -0.4051959511 -1.8355938811 -1.7130528622 0.3375119421 -9.2572496528
F 2.5138832319 0.0180964329 -3.8134394527 1.1237360242 0.2004960953 0.0748676459
F 0.9195949663 1.4465888708 -2.9947577904 0.4271883419 1.2100439960 0.5942868096
C -4.2769633256 -0.4404576201 -3.8034579534 -5.3907965874 0.5035571589 2.4830433946
F -4.3715357175 0.8707279048 -3.4360962898 -0.2909198152 1.9206124493 1.0837143390
F -5.2268287643 -0.6604868112 -4.7809559225 -0.6968881794 -0.2144836688 -1.0504234717
F -4.5966863434 -1.2922845466 -2.7473152806 -0.7617895651 -0.4980543376 0.7632881316
40
energy=-60441.6406031265 config_type=IL_pair name=BMIM-NTf2 Properties=species:S:1:pos:R:3:forces:R:3
C 3.4539474372 0.9358050981 -0.0100450767 2.9555901917 1.5714365949 -0.4448825642
C 3.0352523039 -0.4697967598 -0.3537218701 1.0632580881 -0.6701808293 -0.0401756990
C 1.5548059597 -0.5750657912 -0.6502336548 0.1599979051 -0.8491249207 -1.1108245722
C 0.7989352947 -0.1300676312 0.5804712018 1.5346616790 2.0387593387 0.5383852412
N -0.6447679138 -0.2006971333 0.3802221805 2.4308918851 -0.9595863979 1.1091007875
C -1.3414650691 -1.3254968741 0.6776440215 -2.6255583994 -3.2061181459 0.7122957349
C -2.6701700954 -1.0916764758 0.3852325070 0.7627864564 -2.9964336663 1.1383053930
N -2.7260010043 0.1860549339 -0.0852136915 -2.4824692980 0.5989840924 -0.6390761845
C -3.9799814194 0.7898316769 -0.4997174873 -2.5156890946 1.5694134377 0.1568867572
C -1.4897715995 0.7159479619 -0.0832371827 0.3714573283 3.4119276363 -1.2207499916
H 3.2503852857 1.6646417461 -0.8235298518 -0.3633542207 -0.2571857627 0.3949902839
H 3.1024276104 1.3053240419 0.9536740881 -0.3197482926 0.1010404448 0.2269632268
H 4.5805741219 0.9005916221 0.0506028078 -0.9439146300 0.2854736640 0.1985949141
H 3.6515422029 -0.7865340918 -1.2129324072 -0.3233034157 -0.2425018411 -0.0882502221
H 3.2991386409 -1.1125619106 0.4940606701 0.0008466775 -0.3377310587 0.1479022438
H 1.3362437619 0.0582322726 -1.5167358152 -0.4093626755 0.0532284005 -0.2431507370
H 1.3225449784 -1.6178022850 -0.8714216862 -0.3485434902 -0.3989399210 -0.3647919400
H 1.1041569588 0.9275595789 0.7860135586 -0.6544501594 -0.4882694719 0.1251821625
H 1.1100929595 -0.7174127803 1.4583130027 -0.1680957414 -0.0750198328 0.7334975932
H -0.9596621281 -2.2654543137 1.0770048615 0.6510467887 0.0976905855 0.1195447357
H -3.5207355147 -1.7765447971 0.4996147261 -0.0434291907 0.3563346336 -0.1142081791
H -4.3069881789 0.4686151266 -1.5053574651 0.2375104351 -0.1430074881 -0.1219202840
H -4.7814002663 0.5125080333 0.2321823193 0.4713148783 -0.1282626645 -0.3667004232
H -3.9472927164 1.8993337243 -0.4715092827 0.4497974812 -0.2349689135 -0.1413820312
H -1.2318116101 1.7046650274 -0.4001552193 0.2544844269 1.0685443618 -0.2922105018
O -0.6983992936 2.0962086626 6.4175384592 -3.3573306346 2.4272587032 5.7901813745
S -0.0430403929 1.3363417020 5.2874171022 4.3338706728 1.1003291482 1.3373807102
O 0.2533773959 2.3488215805 4.2149906156 1.4338079286 4.2372740895 -6.2717589731
N 1.3644796747 0.6057344099 5.9100242459 0.8090579551 -0.3985169821 4.9395642513
S 2.4490425025 0.0102325329 4.7423245021 -3.8540175375 -1.0158161894 2.2086686835
O 2.8764364214 -1.3774195789 5.2007972598 2.5083440591 -5.4820665183 2.5994178581
O 1.8184309943 -0.1650407094 3.3926978245 -3.1741254620 0.0724741341 -7.6473957320
C 3.9523665510 0.9490730789 4.6136075905 5.2882956006 2.3144818637 -0.8891731379
F 4.7000805390 0.3094628361 3.6144094975 0.5504890592 -0.3411420909 -0.7376693171
F 4.7061586940 0.8591516451 5.7660510545 0.5487308318 0.5345779074 1.0677893576
F 3.7458619576 2.2335074286 4.1892160412 0.0238968927 1.8448760432 -0.0437812999
C -1.2191493777 0.1602816349 4.6636568282 -4.0651172002 -3.0024520500 -2.1515851420
F -1.6272229898 -0.7038653031 5.6430395503 -0.3539194825 -1.6973406748 0.8517867004
F -0.7544538584 -0.4551416283 3.5220526252 0.3021519229 -1.3661988577 -1.0369755786
F -2.3470990254 0.8829949278 4.2801658826 -1.1465410911 0.6227134051 -0.4349307185
40
energy=-60441.0734415737 config_type=IL_pair name=BMIM-NTf2 Properties=species:S:1:pos:R:3:forces:R:3
C 3.7568436588 1.0555932636 -0.4723592494 -1.0608561369 2.4530858343 -1.0153371510
C 2.9500951373 0.1780853928 0.4752002469 1.6201433079 -1.4065822736 -0.4128496147
C 1.5136421331 0.1145510267 0.0031511414 -0.0594146331 1.4292258331 0.5675748762
C 0.6521227748 -0.7452346091 0.9037295587 0.6471824815 -0.2209573771 0.9956137791
N -0.6996823676 -0.7242560417 0.3430891026 2.1913573391 -0.1900798912 1.7657134822
C -1.2293452140 -1.5710595649 -0.5696028573 -2.6371769861 -1.2452880988 -2.1561143892
C -2.5435723495 -1.1404678942 -0.7821604541 3.0031332137 -3.5654763204 -1.6380345054
N -2.7235654458 -0.0680204370 0.0101921578 -3.5842520613 1.9097779788 -0.2275908266
C -3.9913205934 0.6619580945 0.0601909730 -1.4571010598 1.2287594642 0.3741504853
C -1.6071446709 0.2006631972 0.7050183702 0.2744887823 2.6442598449 2.2307287943
H 3.7652986144 2.0941615999 -0.0518036333 0.5432357260 -0.6306241904 -0.3869761460
H 3.1694579957 1.1539923555 -1.4231073453 1.0042249363 -0.2555497200 0.3038013608
H 4.7653169740 0.6830460709 -0.6531319176 0.3192162987 0.0608652656 -0.0911861519
H 3.0551629426 0.5906187678 1.4774233735 -0.1905595610 -0.3594570715 0.6863728176
H 3.4052209677 -0.8277715829 0.3869623621 -0.3039177563 -0.0176105519 0.7477368707
H 1.4655053953 -0.2618435023 -1.0141401239 -0.0715361960 0.0393977079 -0.6956620107
H 1.1218982063 1.1521071806 0.0881571809 -0.1601165308 -0.3393436267 -0.6423767740
H 0.9583492432 -1.7877424072 0.9644990092 0.4366953575 -0.7538544962 0.0468441104
H 0.6601727497 -0.3249737824 1.9275510435 -0.3755896396 -0.1434882317 0.0049215704
H -0.7260827198 -2.4096245149 -1.0342291399 0.5179913665 -0.3798515951 0.0064147697
H -3.2157632116 -1.6228031112 -1.4603433302 -1.2078868101 0.0174191531 -0.4853142407
H -4.7796131453 0.0085207563 0.4723455582 -0.1091367319 -0.1270668876 -0.0519688094
H -4.2961497385 1.0190727628 -0.9437946271 0.1468551556 -0.2346252762 -0.0280361137
H -3.9169723473 1.5503562205 0.7144659267 0.2730437142 -0.1541061704 0.0263140685
H -1.5098749893 1.0210707587 1.4115799932 0.2495870205 0.0706514766 0.2255638184
O -1.1089558184 -3.6130010290 5.3989107237 1.5221776502 4.0211881330 6.5857460257
S -1.5521263521 -4.2259828646 4.1042577073 4.7500277367 -1.2223863413 -0.0911411424
O -1.5123689827 -5.7263111200 4.2175363811 -1.0538780761 -7.3543916127 -0.1190066818
N -0.4532895225 -3.6668854663 2.8959698853 -1.2175106331 4.5994816392 -3.9727622365
S 1.0000606450 -4.5754348781 3.0478282701 -4.1290083075 -0.2367770453 -1.0222161630
O 0.9091849976 -5.6788721449 4.0454756752 0.1879643758 -5.5039794387 6.2000715443
O 1.2943875888 -5.1544274950 1.6948619972 1.8818865976 -1.7537030652 -7.2124880635
C 2.3491020186 -3.5198921605 3.5893705046 3.4791738642 2.2272672656 1.7825643085
F 2.5820492482 -2.5009901280 2.7012273372 0.7190440210 1.5040298433 -0.7759599106
F 3.4547610678 -4.3668734258 3.6783928374 0.9009509917 0.0831257221 0.0567998581
F 2.0320773515 -3.0479296935 4.8443134414 0.2086892845 0.9297195736 1.1387480201
C -3.2018354537 -3.7242607701 3.6857343275 -3.9337261383 2.2911736681 -1.8228719104
F -3.2138335792 -2.3452020964 3.6257212281 -0.7837068141 1.7390839715 0.1935567272
F -4.0713139578 -4.2186998655 4.6174723570 -1.3828870554 -0.2867443337 0.9630041704
F -3.4911761409 -4.1943928326 2.4409082707 -1.1604530673 -0.8707449942 -2.0800415985
40
energy=-60441.9266825125 config_type=IL_pair name=BMIM-NTf2 Properties=species:S:1:pos:R:3:forces:R:3
C 3.8488887476 0.5106033962 -0.4297342378 0.2999695036 1.1895907976 -0.7757333325
C 2.8952209493 -0.3530979799 0.3816525079 -0.0528423609 -0.4873763792 -0.9721194935
C 1.5166895073 -0.0818668685 -0.2314364010 -0.2532272670 0.2219689473 0.7704818607
C 0.4793985617 -0.9105301809 0.5209534017 1.0528986482 -0.0243701879 -0.4540569984
N -0.8095472450 -0.6078791703 -0.1099499652 1.4349693968 -0.7865721538 1.8279950962
C -1.3605594120 -1.2642159305 -1.1509846179 -1.6641747254 -1.8321333247 -3.0839977772
C -2.5748034976 -0.6647099827 -1.4367002482 1.2815679500 -2.4373376682 -1.5626370509
N -2.6874286755 0.3396620332 -0.5318219578 -3.7078030215 1.7358811071 0.2761631467
C -3.8054028301 1.2827617626 -0.4109090481 -1.2677197977 1.6390151989 -1.0986930480
C -1.6294608516 0.3806648718 0.2701538861 1.4730699946 2.0241518867 2.2819810432
H 3.4634782800 1.5611574776 -0.5028190638 -0.3844761056 -0.2365649867 0.0455060634
H 3.8129877951 0.0997295471 -1.4581325931 0.7365041471 0.2407874585 0.2587530046
H 4.8523698409 0.5691945581 -0.0071797508 0.5060673345 -0.4154008246 -0.1428250014
H 2.9104041024 -0.1475629992 1.4520296356 0.0560721417 -0.0079662978 0.4649942181
H 3.0961119375 -1.4193859325 0.1580830115 0.3097677518 0.0418984229 0.6967117735
H 1.5231470740 -0.3363540466 -1.2919383148 -0.0657926230 0.0290905694 -0.4080928370
H 1.1902250479 0.9600012492 -0.0880165564 0.6291422854 0.6659739698 -0.5848293062
H 0.6569326203 -1.9774714586 0.3769493225 0.0206601010 -0.6425267203 0.5034254313
H 0.5151152492 -0.5564392256 1.5568544399 -0.5520154208 -0.4684936916 0.5343059072
H -0.9143645691 -2.1132937473 -1.6632584040 0.3677418784 -0.2229227016 0.0533076766
H -3.2858781126 -0.9309633440 -2.2100234644 -0.5003938877 0.1855017747 -0.1907505394
H -4.0414464968 1.5326424648 0.6380595208 0.4178683791 0.0490152924 0.0494053592
H -3.4997905811 2.1845644471 -1.0090032643 -0.2289816258 -0.0584283551 0.6491626869
H -4.7300275015 0.8828784744 -0.8730789743 0.3245978730 -0.2922934492 -0.0010091324
H -1.4222599404 1.0599105846 1.0861495828 -0.0958798183 0.5306141066 0.4290399670
O -0.3282926914 4.8084887768 -2.7825235398 2.0718346794 3.6852101992 -7.2102395882
S -0.7499207903 4.2653138134 -1.4617441579 4.6139627545 -0.2185110037 0.8925861412
O -0.8626186555 2.7790488009 -1.5895138858 -1.6133255938 -8.7164456056 0.1596757655
N 0.2537227837 4.7171400767 -0.1613536135 -2.2292918792 3.6206381568 4.1528121868
S 1.8415923128 4.1128999657 -0.2332822466 -3.8891911562 0.2653267780 1.4081644321
O 1.9841179619 2.7932608181 -0.8997006639 0.9026132571 -7.7039396985 -4.9098719420
O 2.3440677955 3.9611995721 1.1780914613 2.1571328687 0.4143195957 6.7731304474
C 2.9326417239 5.2865448926 -1.0413102444 2.8531826662 3.4708401107 -2.7128484141
F 4.1870974367 4.7102997730 -1.0509279004 1.4714835955 -0.4628020423 -0.2112409114
F 2.5305368043 5.4944078385 -2.3564847094 -0.0346967796 0.6500371046 -0.7047567079
F 3.0201600169 6.4637433858 -0.3212080332 -0.0345133804 1.1714041912 0.1452194167
C -2.3750552653 4.9367075696 -1.1140041902 -3.1816497602 2.5121799682 2.6551674486
F -2.2154724273 6.3032731991 -1.0254572103 -0.5730361912 1.4478742453 0.1131177287
F -2.7230336725 4.4263233811 0.1342410426 -1.2506180390 -0.2691124360 0.7859967008
F -3.2871970929 4.6277679385 -2.0817950199 -1.4116588020 -0.4999849511 -0.9077390084
40
energy=-60441.1019107230 config_type=IL_pair name=BMIM-NTf2 Properties=species:S:1:pos:R:3:forces:R:3
C 3.9764198451 0.5946634305 0.8551134216 3.4503843237 1.1199215253 0.0765504976
C 2.9546802773 0.1333188510 -0.1294163711 -0.9495453313 -1.3027935803 -0.9398229757
C 1.5312461743 0.1315435853 0.4408624727 0.0945375803 1.8421091729 0.1687815508
C 0.6554364561 -0.3570019304 -0.6849300060 1.4339674151 -1.4412294404 -1.8361380460
N -0.7393833402 -0.4154260558 -0.2978382890 0.4613029354 -0.1610459136 -0.6706656953
C -1.3121392545 -1.5089305889 0.2515975059 -2.8846532819 -3.4735430021 1.9569514105
C -2.6548784095 -1.2040274366 0.4923561957 2.2438140421 -4.2499622796 1.0593240825
N -2.8525549662 0.0648491525 0.0809134982 -1.8588336717 -0.2005448952 2.2118252790
C -4.1461395587 0.7277479287 0.1780834733 -1.4433671167 0.5146073911 -0.6588124534
C -1.6980524626 0.5251971662 -0.3898916458 -0.2239631390 2.2838027947 -2.3104832855
H 4.9662540858 0.1668984712 0.5231587159 -0.6942484145 0.3741242505 0.5765468659
H 4.1303760915 1.7069728339 0.8145813506 -0.4606123629 -0.8099404711 0.3729722560
H 3.7960118738 0.2612223216 1.8817071844 -0.1674445496 0.0179395454 0.1866779698
H 3.1568025392 -0.9283354363 -0.4330042969 0.1381570518 0.8094183516 -0.1016398475
H 2.9338937272 0.7886637297 -1.0198817246 0.3409691791 -0.3178429668 -0.0547998094
H 1.2342623796 1.1858359054 0.6683039765 0.1135028148 -0.6921916403 0.4808716569
H 1.4262174619 -0.5433005952 1.2958135708 0.0124016843 0.1356082644 0.4648397602
H 1.0185836036 -1.3938066196 -0.9456247297 -0.7778536353 0.5641215530 0.1430329343
H 0.7941750797 0.2252430905 -1.6140089535 -0.2958458947 0.3698160802 0.1269863899
H -0.8134767282 -2.4537366546 0.4658021683 0.3249944779 -0.0086451490 -0.1538942041
H -3.3862013766 -1.8777233884 0.9300831577 -0.5019282987 0.1559629766 0.0921693877
H -4.6762384872 0.5467325354 -0.8024851063 -0.6694864300 1.2009971688 -0.4773913276
H -4.7828859000 0.2871228181 0.9514518010 0.4212263533 0.0025705248 0.7778663692
H -3.9906895430 1.8239986723 0.2643792500 -0.0302644095 -0.3344956603 0.4745873827
H -1.5217195683 1.5122782136 -0.7965549726 1.2243858734 -1.2953143114 0.6379173792
O -3.0973814323 1.1737245320 -2.0604308847 -0.8856095806 -7.8108134537 0.6628190511
S -2.8632794227 2.6429902447 -2.2452833264 -4.2290449039 0.9964643018 -3.7331415833
O -1.9609344285 2.8339054822 -3.4311212595 4.5202055161 1.8544768496 -5.1015051770
N -4.2806548383 3.5560476110 -2.4267603613 0.8175033556 5.2111811110 -0.1454584165
S -5.7477943817 2.7302107501 -2.2062847867 2.2653013587 1.1134770445 -3.0152117352
O -5.6465606570 1.2813831611 -1.9338105627 0.4376997624 -9.5771294250 2.3821124867
O -6.5790283045 2.9580333212 -3.4366939667 -3.8434656104 1.7108714535 -5.4423391790
C -6.6122553361 3.5648887583 -0.8753306928 -0.7290241154 3.2413340510 4.0803160805
F -6.8207332945 4.8854948824 -1.2640947370 -0.7081280688 0.5164155193 0.1582277407
F -5.7084274901 3.5708875397 0.1953752283 0.1240823639 0.1672384154 1.1845116423
F -7.7589715178 2.9150550144 -0.5169176809 -1.4324501840 -0.3003756570 0.5102046064
C -1.9827014308 3.2676995542 -0.8103925713 1.2216858144 4.8546035658 2.9029220533
F -2.7293464271 3.1641073768 0.3265916701 -0.6613367942 0.0696912863 2.2615281113
F -0.7691576649 2.6218106937 -0.6670549624 3.2497611182 1.7523460341 0.3631690532
F -1.7460494723 4.5973451289 -1.0923719996 0.5525860358 1.1000092918 0.3360118878
40
energy=-60441.3305812961 config_type=IL_pair name=BMIM-NTf2 Properties=species:S:1:pos:R:3:forces:R:3
C 3.3792807996 0.2725622321 0.9094435125 -0.4072331588 1.1216170894 1.1774194022
C 3.0314837275 -0.6157741849 -0.2606536932 1.6698478836 -1.3852207643 0.0217606562
C 1.5244832366 -0.9043722924 -0.2785314902 1.2924407410 -1.4710315154 -1.5221891158
C 0.8415328232 0.4174275056 -0.4015646763 1.2835715480 2.4766489699 -0.2004572626
N -0.6072786299 0.2938712745 -0.4308871760 0.8712619668 0.4290644401 1.5481110124
C -1.3701027776 0.1421019876 -1.5117125838 -3.5598824383 -0.7021589513 -3.9181124997
C -2.7036414685 0.0622798960 -1.1221994537 0.8515604249 -0.3278022251 -4.3128229147
N -2.6978420959 0.1719608585 0.2193808016 -1.1616709041 0.4740678324 1.9137528183
C -3.8707373645 0.1440477072 1.0814512582 -1.9400137561 -0.7493642973 1.2367841454
C -1.4261182732 0.3139477295 0.6571306430 0.5519014345 0.5210819348 0.9981329369
H 3.4708296241 1.3151806719 0.5558350733 0.5042621160 -0.1171579637 0.3986279087
H 2.5210349530 0.2428682892 1.6438527433 1.3025814632 0.1725949807 0.1246331185
H 4.2794411985 -0.0883713105 1.4616517031 -0.4218965550 0.6204126713 -0.5249159044
H 3.3687246278 -0.1170403307 -1.1818231400 -0.1096735244 -0.4988980355 -0.4119960232
H 3.5978481769 -1.5700089429 -0.0951666265 -0.5623428164 0.4261597174 -0.7713254474
H 1.3355841880 -1.4595457558 -1.2205105072 -0.4446846780 -0.3822298642 0.5280370550
H 1.2713026372 -1.4736871183 0.6129555630 -0.4985469174 -0.2381066231 0.3598907200
H 1.0693461720 1.1305079239 0.4166162361 0.0664691133 -0.3877454828 0.2357365374
H 1.2157024783 0.8999636130 -1.3416037784 -0.7020847450 -0.1397020647 0.2827119636
H -1.0400867158 0.0861067578 -2.5386109230 0.6818710329 0.0278456059 -0.4436372213
H -3.5634987957 -0.0643164735 -1.7941996355 -0.1195513951 0.0302869671 0.5226878013
H -3.6668439364 0.6176148919 2.0609704894 0.4468588925 -0.1972592658 0.0618399718
H -4.7226465729 0.6982376803 0.6348317005 0.2637131797 -0.2219580782 -0.2554987106
H -4.1388374460 -0.9392853900 1.2064896859 -0.1923803392 0.6868936269 0.2350197359
H -1.0989605663 0.4237227802 1.6697625177 1.6722780674 0.1152535030 2.5099939997
O 0.2512295232 2.8649031094 3.3138517375 -0.7615720273 6.3553905587 -2.4314547180
S 0.2231392370 1.4989535741 3.9647644160 5.2868854785 2.3947631765 1.2840201971
O 0.4645534629 0.4815004730 2.9110557950 -1.2918915463 -7.0513825239 -7.1319077009
N 1.4461619861 1.4863197828 5.1655193953 -0.7282177554 2.6675038755 5.2418304023
S 2.8311915390 0.5810308234 4.6823249932 -4.6216691883 -0.4546014288 1.5017019588
O 2.5728888471 -0.0098312569 3.3390291191 0.0495723949 -3.4211294657 -6.8986112241
O 3.0513834108 -0.4747354855 5.7274764297 1.6673733022 -4.4499751508 5.3382642414
C 4.2833570058 1.6040239405 4.6023846256 4.5796482263 3.6022717161 -0.3859726354
F 4.1131253843 2.6293011199 3.6926269453 0.0098275107 1.1581266928 -0.7047860510
F 4.6173004802 2.1119250938 5.8382829401 0.4856602066 0.6571342891 1.0857221552
F 5.3214117462 0.8033263399 4.1475735173 1.0353411259 -0.5877938393 -0.2954577059
C -1.3945466136 1.2984075533 4.6725287927 -5.0445198043 -0.7741572357 3.0512461529
F -2.3172010393 1.3204505902 3.6340210729 -1.1140416669 -0.1252516724 -1.2540287403
F -1.5190025041 0.0873257744 5.3245126282 -0.4436491008 -0.8929642763 0.8279226544
F -1.6919856140 2.3609546550 5.5008234330 -0.4469531475 0.6296008519 0.9628188483
40
energy=-60441.7254397902 config_type=IL_pair name=BMIM-NTf2 Properties=species:S:1:pos:R:3:forces:R:3
C 3.3541083147 1.0390871363 0.4222621608 0.3454097135 1.9171288559 1.4401558982
C 3.0809641155 -0.0630386256 -0.5742109631 1.2814329755 -0.4571793672 -0.9520884166
C 1.6058113901 -0.1755488541 -0.9141663509 0.0762821476 0.1570010578 -2.7104690669
C 0.7686217182 -0.4714291827 0.2950529697 2.0209301176 -2.7821143604 1.6679014709
N -0.6440647864 -0.5848891295 0.0041320726 0.3798545409 1.3139829472 0.5674477700
C -1.3460834331 -1.6943204222 -0.3376503546 -2.7721109295 -2.1957830789 -0.9494837436
C -2.6785011103 -1.3076267510 -0.5195806294 1.6578338028 -4.0769496497 -0.4244236903
N -2.7238487563 0.0133185777 -0.2808542223 -0.5802718079 2.4935056974 -0.1330746989
C -3.8967301148 0.8829171967 -0.3419015654 -1.2597173170 1.2117513130 0.8980354264
C -1.4862026106 0.4742042895 0.0417182140 -0.1870223319 1.6806099848 -0.0993138617
H 2.3998978402 1.5973066790 0.5810094521 0.8273168108 0.2212378178 0.0759821197
H 3.6861943930 0.6729096707 1.4120660893 -0.1502640672 -0.0791742620 -0.2322562909
H 4.1522707095 1.7367574434 0.0646387220 -0.6805864458 -0.3397084025 0.1939520703
H 3.4408630481 -1.0325982500 -0.2142776772 0.2026732437 -0.2764615433 0.0647974042
H 3.6247681207 0.1737026003 -1.5114798211 -0.1511336982 -0.3371999663 0.1361141640
H 1.5377843434 -0.9974186146 -1.6592489656 -0.4938321473 0.2503812119 0.1588924178
H 1.2773698438 0.7626349627 -1.4066252182 -0.0700203855 -0.2001582020 0.1501916282
H 0.9734009616 0.2290622082 1.1028942458 -0.5585715939 0.9450290734 0.4797165523
H 1.0760725130 -1.4873611352 0.6806103083 -0.2221501680 0.7010798410 -0.1506344520
H -0.9299181409 -2.6828765218 -0.4433380613 0.5066753384 -0.5785013413 0.0075252903
H -3.5125470727 -1.9406726296 -0.7973460948 -0.5438811925 -0.0343980845 -0.1010628656
H -4.3673130368 0.8472507340 0.6701441860 -0.3195299164 0.0306256315 -0.5288249074
H -4.5722329990 0.5589112640 -1.1419353691 -0.2831517483 -0.2565975016 -0.0580702358
H -3.6005853711 1.9348810560 -0.5217241130 0.1739511430 -0.1460214357 0.0270545681
H -1.2200998798 1.5148362976 0.2873924220 1.2577721299 1.5666442526 1.3409054027
O -2.7251136996 5.1540545649 4.0489999432 -0.9389699447 5.5633783812 5.4587125213
S -2.6760301963 4.2812154271 2.8342732776 4.8870244449 0.5623293782 1.2929241321
O -2.5182954304 2.8791438540 3.3085673873 -0.3617326962 -8.7057554860 1.4961956689
N -1.3456685147 4.6895090018 1.8396578870 0.5699510282 5.0208927681 -5.2837612825
S -0.0382226624 3.6462665367 2.2118952686 -5.7980809248 0.2411224273 2.2868267307
O -0.1426457185 2.4277651049 1.3420857408 0.1185400705 -6.8707587345 -6.4969370833
O -0.1374025066 3.1615678876 3.6491162456 0.9128570759 -1.3750608530 6.3279450203
C 1.5463817380 4.4201564581 2.0749136184 5.1262358096 3.6562992293 -0.8511249566
F 1.6676658786 5.5001386150 2.9257809320 0.0310540502 0.9470401804 0.9682952512
F 1.8025600601 4.8897555012 0.8046866306 0.6369456222 0.2560913549 -1.5274829293
F 2.4841597357 3.4792761795 2.4527212800 1.0437390378 -0.9237602349 0.1031411525
C -4.2228877596 4.4036023758 1.9765317502 -5.0069164562 1.3872841748 -2.8127490340
F -4.2530516966 3.5619605792 0.8951169396 -0.3464218584 -1.0199062886 -1.7867092535
F -4.5076933241 5.7031358460 1.5988029874 -0.3986582912 1.0568171422 -0.7330075321
F -5.2123604947 4.0158601956 2.8652539526 -0.9476219298 -0.5115911839 0.7012195829
40
energy=-60427.2492420601 config_type=IL_pair name=BMIM-NTf2 Properties=species:S:1:pos:R:3:forces:R:3
C 3.3851475160 0.2597620593 -0.8162998658 2.9256353967 -0.3214678173 -2.0242911463
C 2.1877385308 -0.2981743744 -0.1200193385 -0.7135758237 -2.0244588358 0.8454308037
C 1.6748336930 0.6117450217 1.0017583841 0.8792254697 0.3679179756 -4.1049377075
C 0.4735410719 -0.0293005580 1.6414404422 15.8618719795 -6.5491002063 -13.8785910127
N -0.6159760237 -0.2574021115 0.7527765991 1.7941518209 -1.6744402707 -5.4660202415
C -0.8234884428 -1.3699348529 0.0204460494 -1.6036658160 -2.4352008846 -2.4078020777
C -1.9854133149 -1.1949330580 -0.7069681994 1.6618635233 -4.2785454645 -0.9350734539
N -2.4578031709 0.0219928551 -0.3992422280 -1.6735766436 1.9213215011 -1.4008483736
C -3.6491821929 0.6455365076 -0.9112200025 -3.0889902734 -0.1800971216 0.3711039030
C -1.6154985581 0.6021115385 0.5004366938 -1.3044143257 4.6136103814 0.0303832874
H 3.4438520020 1.3656307264 -0.8337931960 -0.2655608295 -0.2806603090 -0.0834612054
H 4.3488138018 -0.1160284284 -0.3648909919 -0.8968251287 0.4877609227 -0.1749720817
H 3.3935809102 -0.1346295756 -1.8669503353 0.2009460108 0.6376072836 0.5111964646
H 1.3663695067 -0.5494117929 -0.8184166728 0.2644973301 0.3122132324 -0.1853105771
H 2.4722745069 -1.2829021479 0.3529461139 -0.2246709346 0.6903613868 -0.4395517103
H 2.4445736240 0.7154276936 1.7925273672 -0.3318245534 -0.3242610899 -0.5974476272
H 1.4977838665 1.5995249757 0.5781517261 -0.6180576568 0.5229984875 -0.1671348168
H 0.7855965224 -1.0108837780 2.0468668183 0.2176309926 0.0794407135 -0.1184508635
H 0.1098150807 0.5682943558 2.5012858188 14.8990774649 11.1484958858 3.6440308676
H -0.1750827991 -2.2133803406 0.0335618949 0.8183794680 -0.9733317831 0.1593055286
H -2.4452423643 -1.9016600109 -1.4035273043 -0.2165504600 0.2313841504 0.0210971568
H -3.5457506250 1.7176644220 -1.0712939908 0.4258957104 0.5491572307 -0.3735368541
H -4.0264691339 0.1219706848 -1.8057889683 0.3791959531 0.1697104164 -0.2734069228
H -4.4733230703 0.5275706946 -0.1511593680 0.3834557329 0.1586689529 -0.3018033135
H -1.7706909369 1.6014094938 0.9172905911 0.0234393601 -0.2977654283 -0.0265435019
O 2.0380856978 0.6544928507 5.5853479764 -0.0263640930 3.3645006250 6.2081916854
S 2.0189176423 -0.2595557790 4.3908565948 -2.0238471229 2.4075750685 1.5404715679
O 2.2409084901 0.6106228842 3.1845069572 1.6335255190 3.7801759398 -3.0266307265
N 0.6161162840 -1.2188784445 4.2814180869 -1.7804073714 -6.3431272452 -0.2797798659
S -0.7833405976 -0.3125344785 3.8435273773 -0.6505273575 -1.7473939706 12.2388981334
O -0.6908211571 0.2922184764 2.4759935371 -26.2758837804 3.0948047724 5.5677237261
O -1.1081740881 0.7537569681 4.8638994488 -1.3903643846 4.4591239667 4.9519226414
C -2.1045227981 -1.5094260343 3.8051492534 -1.7432172886 -5.1922355768 0.8837345159
F -1.7577762400 -2.4537456880 2.8606063746 -0.5168848593 -0.9177092465 -1.3879621374
F -2.0172309096 -2.1663556197 5.0433259885 -0.9341847493 -0.1606899212 0.5706006664
F -3.3343765985 -0.9466330440 3.5943108870 -0.9001191168 0.2828960822 -0.1473424401
C 3.4103098573 -1.3768142986 4.5421587376 3.1868764153 -4.3875966947 -0.1381595523
F 3.4140792497 -2.1677150969 3.4065582287 0.6219932127 -0.7394577334 -1.1687357668
F 4.5945169049 -0.6694503081 4.6438748495 0.5765193838 0.1983914551 0.2363200896
F 3.1954032010 -2.2169748431 5.6113386314 0.4337613610 -0.6503041788 1.3435181423
40
energy=-60431.5405381733 config_type=IL_pair name=BMIM-NTf2 Properties=species:S:1:pos:R:3:forces:R:3
C -3.2117054361 0.4693156951 0.9066108024 -1.4267405094 -0.5836703198 5.6474622891
C -1.9489582401 -0.2474771799 0.4667772037 1.1734948339 -0.3378997170 1.0064006025
C -1.8360275671 -0.2083566742 -1.0612297759 2.4283340545 -3.9337165488 1.8498368684
C -0.5758901894 -0.9255492226 -1.4726984271 0.7558305848 -4.2245623142 -1.7735992056
N 0.6080259957 -0.3389567632 -0.9270499655 -0.8760333130 -1.7890142774 -0.6314756426
C 1.3218108557 0.6259135846 -1.5185601117 3.7878969027 3.1421983029 -1.9564477183
C 2.3926603650 0.9506602811 -0.7150505948 0.1700370117 1.7969121591 -2.5666147157
N 2.3198196408 0.1592626969 0.3888628828 1.1252240931 0.4739885252 0.7741561269
C 3.2471410312 0.1602789073 1.5066187918 2.1584305676 1.1963684084 1.3397386679
C 1.2295485256 -0.6061488482 0.2255485893 -1.6394928759 -4.1075880476 4.1412102405
H -3.8535465222 -0.2385177671 1.4612914606 0.1661070820 0.2773207725 0.3697417507
H -2.9321174725 1.3204757173 1.5771700056 -0.4918496049 -0.5603338522 -0.3256021259
H -3.7435883653 0.8344746613 0.0034663578 -0.8311854224 0.0423158352 2.1077148977
H -1.0637221639 0.2534942806 0.8900845244 0.0175640117 -0.1849465972 0.2130085128
H -1.9447731866 -1.2983124704 0.8104580063 0.1233961825 0.1287126798 -0.0163380775
H -1.9065275963 0.8090154081 -1.4381014187 9.5935940587 -5.7591797700 3.1734023613
H -2.7050227072 -0.7865308332 -1.4380470873 1.4700393379 -1.1420741229 -0.7665391669
H -0.6242748859 -1.9828173327 -1.1520074258 0.2883936689 -0.0287153165 0.2152381709
H -0.5224152483 -0.9601910403 -2.5815656550 0.1888901261 0.5208676733 0.1038850454
H 1.1092663384 1.0819866380 -2.4619510567 -0.0792964552 -0.2045968881 -1.1757001413
H 3.1558467715 1.6925066634 -0.9110595490 0.4724977901 0.2194108819 0.1694755550
H 2.8408968594 0.7058922987 2.3957861277 -0.1503770554 -0.6746417762 -0.2458701938
H 3.5996190262 -0.8583588363 1.7345684062 -0.3401343375 -0.1884992956 0.3001866232
H 4.1574064832 0.7471974131 1.2066257755 -0.6182826460 -0.3959083637 -0.0485761902
H 0.8865276882 -1.3592572775 0.9457067675 0.0903501538 0.0693017869 -0.0953701116
O -3.1574694784 0.8727714402 -1.1114897692 -14.3485705699 3.9804994661 4.1334740729
S -2.7135737724 1.6268287734 -2.3195353489 -7.9909911373 6.0581818955 -11.2607147903
O -2.2528878838 0.6165099972 -3.3531281475 2.4991852273 -3.6357314145 -5.3959406156
N -3.9051398752 2.6306275276 -3.0067706752 2.3604734662 5.5343270452 -1.2047700065
S -5.4909169166 2.0066207623 -2.9513227299 2.5802813146 -2.2727714716 -0.8145462254
O -5.5863735045 0.6223088685 -2.3821472727 -0.1333066204 -6.5992016725 3.6364034868
O -6.1112545448 2.0034067974 -4.3179580547 -2.7797906873 1.3238225003 -6.6636842302
C -6.4741368971 3.0733327480 -1.8895218866 -2.6204896302 3.9563475730 1.0099550203
F -6.4298546218 4.3356895888 -2.4823297151 0.0335715115 1.3083574991 0.2352698718
F -7.7900148186 2.6601485059 -1.9941660053 -1.0987995987 -0.4833929133 0.7367800762
F -5.9901924777 3.1021886111 -0.6205278217 0.1139287807 0.2235120144 2.0483485750
C -1.3126924389 2.6908740375 -1.9517373379 1.4870521011 5.4189799883 0.9446857479
F -1.7297890106 3.6754295998 -1.0584671084 0.2387251367 0.5593821010 0.8802744745
F -1.0011431270 3.3394189307 -3.1250741585 1.1404903733 0.2769212167 -0.9786589147
F -0.2938559971 1.9650977610 -1.4152246866 0.9575859813 0.6088522299 0.8959907832
40
energy=-60428.4355808475 config_type=IL_pair name=BMIM-NTf2 Properties=species:S:1:pos:R:3:forces:R:3
C -2.6573850563 0.9988226339 -0.3421785029 -1.6803839345 1.8240302833 -1.6631275096
C -2.1358839039 -0.3970696472 -0.5125549563 -1.0844480980 -0.5494095886 -1.7444486499
C -1.8112295436 -1.0850951817 0.7692385617 -0.3798372625 -3.6081502575 0.1026254670
C -0.7658729927 -0.4220705395 1.6112798001 -0.3029559005 0.8502401544 1.6879599538
N 0.5079278488 -0.3116658598 0.9298415330 -2.3409557856 -0.9759661727 1.9373549285
C 1.4781258968 -1.2484730557 0.9771852275 4.2744291561 -3.3330176100 1.0472389962
C 2.5640609979 -0.8478487046 0.2274516985 -1.5865718875 -0.5755438745 12.5708450339
N 2.2243933829 0.3530405218 -0.2726332873 -5.9151443941 7.2416131416 8.6988621386
C 3.0571693425 1.1821015421 -1.1366605655 0.6224449943 16.4490843471 2.0075873425
C 0.9883166363 0.6739408455 0.1504292602 -0.3218990144 4.5447159367 -1.4647656280
H -1.9142412108 1.7723854522 -0.1665137784 0.5086738997 0.1527451160 0.3852646472
H -3.4418309331 1.0537799075 0.4179282342 -0.0206222409 0.0157671874 0.3751792195
H -3.1556388362 1.2717090503 -1.3084426705 0.3024035373 0.0958768346 0.6544331874
H -2.9599208433 -0.9759151252 -0.9853024397 0.4179839799 0.0347509309 -0.0351742641
H -1.2804929339 -0.4281381597 -1.2038342771 0.1161692620 -0.0251056782 0.0717780174
H -1.3885084984 -2.0917319962 0.4811839057 -0.3165302573 0.6656951704 0.3647357977
H -2.7132885136 -1.3323131089 1.3635297237 0.0789966330 0.5003923207 -0.0242522261
H -1.0456208020 0.5830772402 1.9576158581 -0.3036877752 0.2965396276 -0.0397022929
H -0.6269466147 -1.0373150453 2.5102311462 0.3384116291 -0.0901133647 0.3178133616
H 1.4759984765 -2.2032570077 1.5070992390 -0.7205322180 0.1388275233 0.1905187124
H 3.4957079412 -1.3702596003 0.0639909935 0.7824741492 0.4499944065 1.7118258713
H 3.3330735238 2.1483617066 -0.6536527381 -0.5146117358 0.5825344833 1.0403734201
H 2.3810194910 1.4952173183 -1.9834765218 0.9425095545 0.6791007581 0.4065544671
H 3.9206125430 0.6329279209 -1.5124485969 4.3581787476 3.3624080952 -0.5972303457
H 0.4704546019 1.5857888926 -0.1023790159 -0.2405417221 0.3511994550 -0.1908807463
O 5.5368277219 -0.8023233640 -4.6307791169 2.5219797600 0.1816786845 -6.4940410850
S 5.0594673134 -0.9848499335 -3.2223324580 -2.6056894147 -1.1295008641 -2.2488592529
O 4.6275457024 0.3102233383 -2.6145506067 0.2552819653 7.1964334690 2.3123198828
N 3.6906466749 -2.0456069156 -3.2517717020 -1.6206778899 -3.6850159041 -3.0430209893
S 2.7441461868 -1.6824300157 -1.8420819621 1.5790213262 -8.2885331539 -7.9029532389
O 3.1885669190 -2.5406486043 -0.6961937805 3.1245122919 -9.2165628294 3.1240138043
O 2.8702990654 -0.2468947170 -1.4695684815 1.0610056547 -8.0203623816 -15.2431493817
C 1.0544211021 -2.0422795991 -2.2700906704 -5.1761620734 -1.4420198423 -1.4848181629
F 0.6534761145 -1.2686136705 -3.3356912309 -0.4522660381 0.7204971803 -0.8572499796
F 0.9454516080 -3.3682253023 -2.5953045207 -0.4283588313 -1.5598341542 -0.4176599798
F 0.2358837699 -1.7756875905 -1.1730419630 -0.5237079958 -0.1104753716 -0.0062431973
C 6.2902290831 -1.7584282281 -2.1997691424 3.8136995012 -2.7356772837 2.8574868935
F 6.5776293296 -2.9719119458 -2.8017317779 0.7649556765 -0.9270493378 -0.1460374065
F 7.4236410270 -0.9690791123 -2.0812797169 0.6843991560 0.1200812469 0.2744584556
F 5.7095286631 -1.9951774657 -0.9691075737 0.0022005087 -0.1721638117 1.4529699172
40
energy=-60440.2990106663 config_type=IL_pair name=BMIM-NTf2 Properties=species:S:1:pos:R:3:forces:R:3
C 3.9774105958 -0.0517129282 -0.8148576054 1.1748586861 -0.2036356815 -1.6632961337
C 2.8720331609 -0.8123213004 -0.1100372143 0.6128343943 -0.2096404820 0.8188264002
C 1.5654160342 -0.0464758619 -0.2815817865 0.9857387717 0.1505161630 -2.0905217832
C 0.5070304335 -0.8483847070 0.4377369211 0.5902275526 -1.5720961512 0.1941370269
N -0.7804946347 -0.1903676254 0.3271121154 -0.4469276449 -1.0903902406 -0.7186956934
C -1.2985583673 0.7222641218 1.1687906167 -1.4740795100 2.8292957980 3.0680908952
C -2.5477977535 1.1226946711 0.7356950979 2.1163707017 1.1037090175 3.0555040489
N -2.7638305874 0.4176030207 -0.3984686056 -2.9831287484 0.8949112427 -1.3679050961
C -4.0018371682 0.5709485267 -1.1606695533 -2.2013262232 -1.8782671289 -0.6317363247
C -1.7099106518 -0.3704936969 -0.6490559746 0.9673047645 -2.2840604764 -2.4949875344
H 3.9140696099 -0.2481209808 -1.9073372460 0.0912819219 0.1762662419 0.2987753028
H 4.9786315228 -0.3995450028 -0.4841846078 -0.3240346709 0.4591968705 0.0016959806
H 3.8340378867 1.0291739035 -0.6707165496 0.4728143213 0.0102274900 0.3113641955
H 2.7877786506 -1.8484506740 -0.4720546504 0.0370924035 -0.0906908445 -0.0027499642
H 3.1281578247 -0.8290556402 0.9672363678 -0.2449474682 -0.2225353309 -0.0792268339
H 1.2899499573 0.0607775573 -1.3334746056 -0.0243921877 -0.1868117062 -0.5313038972
H 1.6902911829 0.9488894367 0.1777505996 -0.1278603987 -0.5690673534 -0.9774136995
H 0.4495086734 -1.8281758762 -0.0589908262 -0.3776144585 -0.3871271102 0.1493845070
H 0.7391430922 -0.9517431581 1.5185500474 -0.0714928696 -0.3566558699 -0.3917638957
H -0.7582805170 1.0557803293 2.0492312380 0.2733304228 0.3485818473 0.7598058622
H -3.2038925267 1.8438025693 1.2070092907 -0.5355710760 0.2131773980 -0.1148984383
H -4.2263876686 -0.4031665598 -1.6791510130 0.3017233483 0.7070752440 0.1488039357
H -3.9479153019 1.3679617436 -1.9142333444 0.0379189842 0.4290339309 -0.0428079663
H -4.8486814330 0.7111616251 -0.4311763216 0.6817483855 0.3606406786 -0.5995856005
H -1.6458720149 -1.0230434931 -1.4915213674 0.2250370766 -0.7921224638 -0.8679979684
O 5.7669197146 4.1376229779 1.2188843225 1.5804140184 3.6144180961 -5.5672869931
S 5.4692373347 3.1598586369 2.3303266593 -4.0495115324 1.0185510902 -0.8512058853
O 5.2102470112 3.8916262209 3.6080877661 -0.5269348567 3.5007355318 7.5213219636
N 4.0870212579 2.2018934089 1.9667781049 -0.5910519766 -4.0957796529 -5.2804520737
S 2.8245966326 2.3612249663 3.1090515941 5.4390072179 0.9573346859 1.0722954514
O 2.9234773430 1.3680476002 4.2308341934 -0.0282329207 -5.8987505456 4.7652768672
O 2.7991538750 3.7314870813 3.7239442207 -1.0570248998 7.4668540609 2.3729795085
C 1.2490840270 2.1098120281 2.2950596329 -3.0884596629 -0.2266284789 -3.1189590838
F 1.0630919583 3.0398074053 1.2922007144 -0.8319968430 0.8035862020 -0.7399063394
F 0.2168766989 2.1095108677 3.2067691808 -1.6120075087 -0.0613170167 0.5506306511
F 1.2901845711 0.8649528090 1.6917198538 -0.4273165995 0.1481659493 2.6351248034
C 6.9238129853 2.1160738892 2.4575751113 3.6000707489 -3.4279310530 0.0443594566
F 8.0572618833 2.8446719297 2.7486159527 1.0340627303 0.5730100585 0.1439181840
F 7.0703345027 1.4934760305 1.2260586836 0.5845412011 -0.8222560976 -0.6608967275
F 6.7074945291 1.2112203228 3.4703105032 0.2134960782 -1.3933637869 0.8964743110
40
energy=-60423.1341372737 config_type=IL_pair name=BMIM-NTf2 Properties=species:S:1:pos:R:3:forces:R:3
C 3.9962346360 0.5734241532 -0.3180547990 2.3974727641 0.0900631587 -0.2767441828
C 2.9255783435 -0.4309132616 0.0401773234 0.3861863647 -1.9871690720 -0.3756485790
C 1.5384911915 0.0959456923 -0.2577221507 3.6314100383 6.2402183631 6.6049658014
C 0.5530636478 -0.9825479313 0.1362286529 -0.0553423138 -2.2818167850 9.8196059842
N -0.8183070274 -0.5412915473 -0.1251180758 1.7288453511 -1.4019650438 3.0452679959
C -1.4208362973 -0.7656700234 -1.3003184987 -1.0164940384 -0.9084463562 4.6589086277
C -2.6928490021 -0.2395089971 -1.2464972524 0.9602440813 -1.3822731376 0.8998701035
N -2.7955735767 0.2909665962 -0.0050125559 -3.8609624445 2.0905769899 2.6769529055
C -3.9837985353 0.9592030842 0.4934356319 -1.7125263179 2.3547844757 0.8527695064
C -1.6648554041 0.1107300052 0.6759614500 1.4091098593 1.1315954728 4.4395567462
H 3.5936930522 1.5529976444 -0.5854714246 -0.0273264828 0.3767338998 0.3633899878
H 4.5794938557 0.2233288524 -1.1975533660 -0.2325849449 0.1846551632 0.2987849878
H 4.7133020516 0.6125661613 0.5307192023 -0.2021812464 0.6451419116 -0.4830503694
H 3.0874732622 -1.3531172587 -0.5831730249 -0.1157213961 0.4463703507 0.6142113045
H 2.9975120342 -0.7385018406 1.0993887553 -0.0358664281 0.0413747147 -0.1269993768
H 1.4646634096 0.4097427112 -1.2981270440 1.7794135491 3.7411371139 1.8218716267
H 1.3379245185 0.9367412276 0.4674300126 0.5459592118 -0.0350726132 -0.3781153915
H 0.7518800453 -1.9286946842 -0.4041435085 -0.1212343148 -1.5559659741 2.9863460238
H 0.7088952281 -1.1939140792 1.2139078855 -0.8319593761 0.3617679917 0.7743928572
H -1.0428959050 -1.2674526549 -2.1922093844 1.3287709990 -3.4419566794 3.5273492894
H -3.4326501570 -0.2571234338 -2.0356248678 -3.5622096141 1.5224572636 4.8623588913
H -3.7659853426 1.9969895938 0.8294950428 0.2014829333 -0.2002231793 -0.0318731946
H -4.4513338569 0.4490795070 1.3431076818 0.0838266554 -0.5350653679 0.2532040001
H -4.7474539999 1.0661152347 -0.3015575121 0.3320630912 -0.4325814782 -0.1923749086
H -1.4316661720 0.4209052489 1.6970060458 -0.1277852856 0.2646974259 0.0219804432
O -3.4587481519 1.2438104364 -3.7947667458 -0.7971790161 7.7313434277 0.9874159287
S -3.4858071984 -0.2556489948 -3.7973986941 1.6414903413 1.1454962564 -4.6994466969
O -3.1980012114 -0.7746795329 -5.1764377833 0.4572658034 -3.4722119919 -6.6884866547
N -2.1924083308 -0.7737261355 -2.7803267466 -0.6016645292 -5.7372552239 -9.5354391442
S -0.7520608482 -0.0486668834 -3.4478128572 -2.3448296834 2.1108658796 -5.5814853397
O -0.7808747110 -0.2596956685 -4.9301600839 0.9731322724 -2.0505009344 -7.2313099181
O -0.8367104156 1.4114071328 -3.2083212185 0.2994747881 8.3254088231 3.0592256772
C 0.7141303129 -0.7933439109 -2.8041363315 4.3687508339 -4.1632611764 -2.0711013587
F 1.7859087115 -0.1663681228 -3.3788040465 1.6274869863 0.9867355429 0.2063710736
F 0.7458392598 -0.8495910272 -1.4360982952 -1.1576611066 -5.6948405957 -17.5607332469
F 0.7345167570 -2.1086745274 -3.2870524716 0.1488126912 -0.9822487711 0.0380747022
C -5.0499326632 -0.9160522610 -3.2885326049 -5.9430618909 -1.9627324660 0.9022096517
F -6.0406657268 -0.4560555950 -4.1528800680 -0.6153679351 0.2868770021 -0.4944453993
F -4.9888198991 -2.2767239462 -3.4051242266 -0.2351446740 -1.9894832754 0.2794077472
F -5.4025890068 -0.5229095436 -2.0182464498 -0.6991541097 0.1356104512 1.7261844591
40
energy=-60439.8275548798 config_type=IL_pair name=BMIM-NTf2 Properties=species:S:1:pos:R:3:forces:R:3
C 3.5497049896 0.3313140903 -0.7323053286 2.3514911928 -0.4873497483 -1.0190779813
C 3.0098806313 0.2537000922 0.6553763861 0.2169222562 0.2808138222 3.0492374371
C 1.4937722856 0.4221373316 0.7291951965 0.2277485462 1.8447707488 0.5484388702
C 0.7889383655 -0.6479029696 -0.0648713123 -0.8753400951 4.7288089737 -0.4065561588
N -0.6537669924 -0.5101220712 -0.0105700147 2.4463117036 0.2652614475 0.4291980075
C -1.3940770161 -1.1138461488 0.9472891122 -3.1738184880 -1.3345335929 2.5639380569
C -2.7251751548 -0.7726936058 0.7021662181 1.6691827956 -2.6262875133 3.3945869132
N -2.7208783948 0.0168654214 -0.3873680720 -2.7263831546 0.9737685004 -1.3993234116
C -3.9523113213 0.5731471791 -0.9460752037 -1.3882677335 1.7779893756 -0.7460723632
C -1.4582999843 0.1776730722 -0.8228458580 0.6491719582 1.7623897676 -2.5756672511
H 3.8440521352 -0.7205481464 -1.0166324617 -0.3346192393 0.7189533743 -0.0535535653
H 2.8232519582 0.7646585230 -1.4216566012 0.0042961775 0.0910513639 -0.4068506342
H 4.4831374928 0.9639803216 -0.7140399300 -0.8846208146 -0.5991018727 -0.3946500771
H 3.2647448888 -0.6920549989 1.1724916636 0.2192740940 0.0238527010 -0.3998612282
H 3.4461612630 1.0651545696 1.2878198854 -0.2335241624 -0.3395447301 -0.2434162741
H 1.2314887633 0.4594600862 1.7871735260 -0.5702494978 -0.1432085523 0.4310638575
H 1.3010524811 1.4228498456 0.2903155017 -0.4578849063 -0.0909435565 0.1964597320
H 1.0915969065 -0.4909275143 -1.1329503007 -0.6286299666 -0.1709406557 0.9586573971
H 1.1245563845 -1.6533092555 0.1942604048 0.2382137454 -1.9585254112 -0.0646402866
H -1.0117594772 -1.7485634590 1.7579092954 0.2930189778 0.1615870785 -0.2694501911
H -3.5609044746 -1.1069242981 1.3046158775 -0.7738213315 0.1975047308 -0.1616811173
H -3.7460452744 1.3736439723 -1.6897954418 0.3433229832 -0.2551096786 0.2546876414
H -4.5761474507 -0.1751416206 -1.4619223080 -0.0224985150 -0.3848839481 0.2222366520
H -4.5045251250 1.0501357086 -0.1044871693 -0.0967283320 -0.3267761522 -0.3328889042
H -1.1484478798 0.7573138745 -1.6744822471 0.1827872470 0.4890740543 -0.6143053378
O 4.3297274688 -2.7433850363 -0.7501970619 0.0861240294 2.3517170975 8.2035615209
S 4.4559095623 -2.8824485617 -2.2356016837 -3.7385615147 -3.1177308687 0.6351381629
O 4.9219513177 -4.2851873971 -2.5001100083 2.9679865649 -6.4539293823 -2.5560462956
N 2.8962775976 -2.6764297287 -2.9081631580 -3.0201091109 2.8903341737 -6.0861030428
S 1.6641544137 -3.1253357449 -1.7561580448 6.0474945780 -1.2276083267 -2.0360773659
O 1.6620712612 -4.5934881285 -1.5014291935 -1.0280793047 -7.6375674189 0.9651140342
O 1.9691836894 -2.3612943812 -0.4876298050 3.7172551536 0.8920426355 6.2260998459
C 0.0793086723 -2.5370419935 -2.3296244238 -3.5025434360 1.2626855071 -3.9014899396
F 0.1934008931 -1.1526227303 -2.4311361156 -1.0814008687 0.7769961437 -1.4406384620
F -0.2015224018 -3.0871801062 -3.5826267458 -0.4089325724 0.2257578284 -0.4907245426
F -0.8811778617 -2.9486811927 -1.4605897543 -1.8163679660 -0.0182075949 1.2924297874
C 5.6224289065 -1.7055593608 -2.8589496108 3.9401047974 4.7184568041 -1.8476830419
F 6.8504756371 -1.9677536559 -2.2456763323 0.7647936994 -0.4855961388 -0.1542081907
F 5.7088167133 -1.7235301913 -4.2252412413 0.5804556055 -0.1588124967 -1.6996505027
F 5.3065827196 -0.4169441341 -2.4766146832 -0.1774834105 1.3745911537 -0.0777930387
