26
energy=-34494.4480789144 config_type=IL_pair name=EMIM-PF6 Properties=species:S:1:pos:R:3:forces:R:3
C -2.5755503779 -0.7527070536 0.1530938093 0.1280633782 -0.6042278361 1.6645921862
C -1.8883745259 0.1735727511 -0.8505113286 -0.7635038671 -0.6883254695 0.0456216356
N -0.5422939348 0.3829676804 -0.2927199054 -2.4549932959 1.0997992215 -1.2054230117
C -0.1676850026 1.3646216709 0.5643073175 2.5498823478 2.4560315757 2.6152373309
C 1.1899503805 1.1750675464 0.8223049653 -2.3001672091 3.6490215009 2.0896061853
N 1.5860280945 0.0978323289 0.1208643134 2.2965212665 -0.4126772945 0.0109690213
C 2.9264815324 -0.5010359250 0.0626953047 0.5721343822 -1.7411221731 1.2631463208
C 0.5189096887 -0.3769467142 -0.5560141340 2.5678892375 -1.8172511259 2.0324627618
H -3.4229880858 -1.2973754589 -0.2646780758 -0.3581364194 -0.0475022027 -0.1292683916
H -2.8831577310 -0.1217841685 1.0034058636 -0.3496912907 -0.3492888907 0.0647645404
H -1.8209354435 -1.4806527851 0.5511181329 -0.6763143439 0.2762978966 -0.5156202116
H -1.7785189807 -0.3659630904 -1.7978107164 0.2307235953 0.2262722682 -0.6621679935
H -2.4435818195 1.1271928458 -0.9199631694 0.3183937019 0.0686792893 -0.4070529875
H -0.7870932180 2.1466275060 0.9751713828 -0.6628736783 0.2961473833 -0.0070483023
H 1.8133688380 1.7812076450 1.4676441109 0.4812847922 0.1254946178 0.1967376994
H 2.9782732143 -1.3082448656 0.8463621339 0.2234503848 0.7046100819 -0.2150978785
H 3.0253201172 -1.0369138079 -0.8958768536 -0.3069696663 -0.3654608072 -1.5010226507
H 3.7227433912 0.2309206193 0.2124179579 0.0980908115 0.4203092860 0.0925046973
H 0.5491038627 -1.2383867246 -1.2018111091 -1.5421140094 1.6850727887 1.2455087724
F 1.9585144679 -3.6839158361 -1.1204401872 -1.2028003649 -0.6577023334 6.1258517624
P 1.0560699157 -2.6880371429 -2.0976968639 2.6333427985 -6.3113566337 -3.9798646720
F 2.4757053638 -1.8699465808 -2.3384351935 2.0044536256 6.9661962029 2.3765564951
F 2.1207828581 -3.5871649307 -3.0191431394 -0.2903623354 -3.6727183636 -6.4133917624
F 0.0785453565 -1.3387290293 -2.3219535007 1.5997602564 6.5192827722 -9.6759759785
F -0.5230407669 -2.7912696379 -1.5623920216 -6.7516399198 -0.4280918076 18.6416177682
F -0.1272726513 -3.5052037305 -2.9201457331 1.9635301630 -7.3871660829 -13.7551048031
26
energy=-34490.7664092083 config_type=IL_pair name=EMIM-PF6 Properties=species:S:1:pos:R:3:forces:R:3
C -2.5388120126 -1.0489667233 -0.1451211251 0.0332047932 -1.6521474952 0.0462630021
C -2.0002349448 0.3375945601 0.2190052653 -1.2525200755 0.1749921568 -1.9939123554
N -0.5635595433 0.3818742704 -0.0891176060 -3.0881858478 0.2926597916 1.7331130552
C -0.0032431671 0.7553736830 -1.2551997433 2.4965245057 1.1863315641 -3.7985454258
C 1.3644620886 0.6404373060 -1.0873164470 -1.4045672493 1.8244384402 -4.5979298104
N 1.6003833828 0.2042714214 0.1640352118 1.8413524565 -0.1052354056 1.0223961978
C 2.8995461546 -0.0569947373 0.7700461867 1.7799425750 -0.4128573231 -0.6142007759
C 0.4063252720 0.0376332191 0.8013397457 2.8014492328 -2.3002147767 -2.3609631094
H -2.3595090565 -1.7238923580 0.7318130200 -0.2455111810 0.2283290968 -0.5912344245
H -1.9967279919 -1.4373154125 -1.0478287367 -0.5373130110 0.2198185842 0.6775666174
H -3.6149783975 -0.9654361016 -0.3706412269 0.0561729156 -0.3002057588 0.1217017850
H -2.5630368119 1.0341843491 -0.4479315294 0.6907811515 0.3850124445 0.4651148201
H -2.1918279546 0.5526291858 1.2730698852 0.0953757150 0.3307803328 0.4982639620
H -0.5430695662 1.0840118381 -2.1531581318 -0.0845299861 -0.0993421752 0.3408981698
H 2.0906290654 0.8716868165 -1.8562950347 0.6753163194 0.0393571571 0.0129665657
H 2.8403463654 -1.0084405273 1.3309281271 0.2146471447 0.0692973973 0.0623788286
H 3.6545597140 -0.1217871246 -0.0629854623 -0.5280889574 -0.2645231220 0.6567760005
H 3.2472750840 0.7594505771 1.4268102727 -0.2565650405 0.1249325868 0.3114504859
H 0.2714723198 -0.2963142419 1.7985473285 0.9876984840 -4.0291605256 0.5897773900
F -2.3463532489 1.3768728492 3.9434483187 -0.7115353523 1.4665523864 0.9645757918
P -1.5675353556 -0.0267590391 3.4927859407 1.0720020087 -3.4219506974 3.4578842707
F -0.3471897157 0.4321679378 2.4248860258 -2.0607349709 13.9481508043 -1.8186607258
F -1.4343097913 -1.2161889625 4.6531422197 -9.0949037027 -2.8173263418 7.0640059171
F -0.0277599518 -0.5760919291 3.8702454095 13.2323510259 3.2184198344 5.5314358357
F -1.0161518736 -1.3304345755 2.5874138320 8.6755652838 -8.7217709489 -7.3593861491
F -2.5660604967 -1.1539348719 2.7803972903 -15.3921604235 0.6262976872 -0.4079771917
26
energy=-34433.6638086729 config_type=IL_pair name=EMIM-PF6 Properties=species:S:1:pos:R:3:forces:R:3
C -2.7321981973 0.5542323974 0.1342127363 -2.0335132789 0.7040260100 0.2463260136
C -1.8718319592 -0.2089116220 -0.8440144595 1.1869982288 2.7829524549 -0.9271951976
N -0.5001965018 -0.3200587210 -0.3870807552 -0.5694445027 9.6788305738 -2.8128958253
C -0.0022563609 -1.3272910257 0.3809045984 17.6853574633 23.3118515444 27.4474451897
C 1.3309949719 -1.1097931381 0.6223371179 2.8422510291 -3.8930112873 1.5869365786
N 1.6362469325 0.0360109938 -0.0048957137 2.1684727548 2.0198017760 -1.6385566140
C 2.9450002661 0.6542706791 -0.0199405936 1.4708140052 1.6154327928 -1.0493357241
C 0.5234751103 0.5130396806 -0.6165017872 1.5239253571 5.4116199579 -2.3582594733
H -3.6669803327 0.8631033514 -0.3803541187 0.1262448664 -0.1240003283 0.2548845779
H -3.0335499658 -0.1266751415 0.9566506663 0.2642242853 0.6207025017 0.1663701704
H -2.2603580472 1.4806736751 0.4857622279 0.1321352472 -0.0981887709 0.4342613034
H -2.2548238181 -1.2462638588 -0.9376886691 -0.7737132886 1.6997910345 -0.9349776611
H -1.8737725849 0.2820087390 -1.8405729460 0.1410447371 -0.0130196605 0.3309693744
H -0.5915281183 -2.1827643378 0.7470652577 0.8509420995 -3.2160583821 24.0591494029
H 1.9489295800 -1.7738599626 1.2105282167 0.5750555772 0.7578591762 0.3052638363
H 3.7022670084 -0.0483993661 0.3578158482 -0.0776071621 0.0468915837 0.4527065091
H 2.9500831365 1.6309707814 0.5294347313 0.1628377258 -0.5647778155 0.1154450595
H 3.2521072891 0.8987410325 -1.0639753866 -0.1276161660 -0.0288050400 0.1355688695
H 0.4983915917 1.4309658433 -1.1952094601 0.0945821968 0.1710886257 -0.0577799950
F -3.2723137817 -4.0485875600 0.3028516394 -27.3423523502 -4.9349425530 88.5777617044
P -1.8759797702 -3.1503618661 0.0102124777 18.2192968086 16.6788544806 20.1953056314
F -2.8937122762 -2.3005987449 -1.0260156959 -4.0551932495 6.6500858323 -3.3412607145
F -0.6201405412 -2.0378676948 -0.1655062613 -17.6809186180 -28.0400015043 -47.0275905032
F -0.6052839188 -3.9837945560 -0.6925189077 9.5614515898 -1.6512497318 -0.5707117611
F -3.0767374809 -4.0081598192 -0.7630992639 -65.1653758734 26.5581254410 -82.7196667300
F -2.2321398858 -4.5428428659 -0.8682026489 60.8212763380 -56.1442116976 -20.8825172459
26
energy=-34458.5881574617 config_type=IL_pair name=EMIM-PF6 Properties=species:S:1:pos:R:3:forces:R:3
C -2.6620652363 0.4078226881 0.3658643425 -2.5031959038 0.7648502440 1.0246972231
C -1.8811803661 -0.1888065486 -0.7981218261 0.6065175537 2.1542963471 -0.4700520488
N -0.5066337659 -0.3305852266 -0.3498770166 -4.1000665157 -3.0113452821 -1.0625541873
C -0.0074779999 -1.4427870634 0.2651666462 3.2878062221 -1.7851693369 1.6829041795
C 1.3355171501 -1.1579176649 0.5226046536 -2.2557210563 -4.8060138400 1.4311053644
N 1.6238498429 0.0860756711 0.0735377715 4.6727956047 -0.0820248688 0.8721345944
C 2.9195316191 0.7495040228 0.1562134763 0.4026461038 0.0177072868 0.0966356917
C 0.4854416504 0.5741347157 -0.4557388843 -1.2427051283 7.9118469825 -3.6139502497
H -3.2606031317 1.2944369042 0.0379661987 0.2077802544 -0.5663141576 0.1789587133
H -1.9947244654 0.7701189081 1.1743017909 -0.2236296339 -0.4270879851 -0.2351830081
H -3.3813497829 -0.3576577606 0.7361341686 0.3514532364 0.5610071354 0.3799036407
H -2.3217012560 -1.1068117194 -1.1966279952 0.1092175973 -0.5981532956 0.1159294500
H -1.8683552046 0.5635655949 -1.6358484124 -0.0615648157 -0.8118377951 -0.3106439630
H -0.5533473316 -2.3547024713 0.4999825965 -0.2697841846 0.0172082447 -0.1010984806
H 2.0095469552 -1.8555163584 1.0102171989 0.6132601669 0.1958387852 0.0810483875
H 2.9262120921 1.3584022550 1.0828034606 0.6655195081 0.0603461241 0.1639823042
H 3.0306505261 1.4314240975 -0.6972558960 0.0629113785 0.2116393350 -0.2878588309
H 3.7464382094 -0.0065119063 0.1225623964 -0.4483681741 0.4896947573 0.3164299732
H 0.3602504953 1.5658118622 -0.9138846702 0.1895290173 -0.6009100653 0.2814782518
F -0.4626395894 -0.3860149759 -4.6159791208 1.6219051865 -0.3512081406 0.8774942848
P -1.7880842534 0.5850345699 -4.8768217546 31.4770751396 3.0312015028 -6.2423099845
F -2.2099241561 0.3599704841 -3.2723068107 5.5205199183 -4.7141227366 6.3184176644
F -3.2401098032 -0.1583764805 -5.2253052864 -0.7882955191 -79.1260720798 -64.5356760411
F -3.4192275116 0.5691194745 -4.5437467598 -58.1715924457 -4.0018169464 39.2018395309
F -3.0247230729 1.5291285513 -4.2851585254 17.2941748900 84.2685666795 22.5547443783
F -1.1567048970 2.1296583507 -4.7492665741 2.9796890730 1.2017548081 1.2727719722
26
energy=-34459.4455532474 config_type=IL_pair name=EMIM-PF6 Properties=species:S:1:pos:R:3:forces:R:3
C -2.5521248180 0.8061171544 0.2337070092 -0.2567503124 0.7553033914 1.2889583115
C -1.8836659520 -0.0815486812 -0.8141513716 42.5136565080 41.6151169521 38.6781198391
N -0.5727522100 -0.3908196670 -0.2791634895 -2.6946173808 1.9422385844 -1.3798919760
C -0.1717746819 -1.4042479167 0.4985477156 3.2268723811 -3.4122050331 3.5654432094
C 1.1909143467 -1.2401702115 0.7301894512 -2.1592800623 -3.5147106248 1.8997039097
N 1.5966928204 -0.1243483839 0.0860961887 2.9322687951 -0.6215283675 0.0545290865
C 2.9386028498 0.4062931475 0.0675441824 0.4122926032 2.2379553783 -0.5086119118
C 0.5046251067 0.3916417075 -0.5322594752 1.0594366768 5.0173181995 -3.4169327567
H -3.5367845736 1.1209198558 -0.1492541733 -0.2808272446 -0.1805818642 0.4863404257
H -1.9492479315 1.7402391709 0.3797570573 -0.1735030681 -0.6716462593 -0.0398115891
H -2.5805171358 0.2326712178 1.1709936000 -0.5852981847 0.5517329045 0.4453283022
H -1.8064872603 0.5012378408 -1.7476872331 6.1576317636 6.5679381465 -3.1842791272
H -2.5299656606 -0.9771151204 -0.8715192575 -10.8702892490 -33.6116327119 38.7425703728
H -0.8077444038 -2.1882045003 0.8631858206 -0.6627380730 -0.5490051493 0.2457667462
H 1.8456264680 -1.8794703329 1.3214192033 0.1926467376 0.0025916200 0.0587472296
H 3.7293842597 -0.3308256716 -0.0522948383 0.3829548808 -0.6894403099 0.1601584352
H 2.9976962706 1.1287153437 -0.7793371063 0.1240902524 -0.2975518314 0.2574954994
H 3.0492187906 0.9990044188 0.9983896185 0.6816759206 -0.0960227059 0.0767033273
H 0.5383037149 1.2899106285 -1.1241629019 -0.3219402262 0.3625891509 -0.1151834651
F -3.0024267623 -2.8950871419 -0.8184556033 1.1692882245 -0.1434139684 2.4454348513
P -2.6236005426 -2.0365057668 -2.2126590761 -4.3337595883 -16.1353754631 -11.5173085645
F -1.0722073283 -2.5614336490 -1.9187254138 2.8743447954 -1.1520122823 1.1226587485
F -4.0194615646 -1.2591722057 -1.6987330523 -6.7103510702 6.3600142018 4.7278986883
F -1.8004771701 -0.6481689392 -2.7014130658 11.5572538727 3.1732609453 -22.9617886635
F -2.5148198906 -0.5732470895 -1.4372224348 -41.2507080638 2.1609296576 -42.8068573992
F -4.0875962441 -2.5908875482 -2.7612881083 -2.9776098293 -9.6667716922 -8.3149073435
26
energy=-34478.6179261396 config_type=IL_pair name=EMIM-PF6 Properties=species:S:1:pos:R:3:forces:R:3
C -2.6445574895 -0.3643183109 0.6168926210 -1.1032497069 -1.2927083310 1.9932143911
C -1.9094819965 -0.1007152377 -0.6801757431 -0.6708272096 0.3334814167 -0.4940951991
N -0.5264122913 0.2595253177 -0.3874218639 -1.1536189616 -0.8921713105 -1.7692334637
C -0.0136956178 1.4930515347 -0.1689250040 -0.7954009082 2.5757880087 -0.4533885537
C 1.3435362888 1.3120399433 0.0648839478 1.0371601742 5.3137115281 1.4036970632
N 1.6041680652 0.0045785442 -0.0174665513 3.9179834998 -2.6743866766 -0.0645367321
C 2.9169902495 -0.6210306480 0.1636692362 0.7199499913 -0.8872993320 0.8580014037
C 0.4716490836 -0.6613577998 -0.2942536070 -1.8727979421 -4.4616291652 -0.6120816518
H -3.2819854748 -1.2728704919 0.5200918145 -0.0418237884 0.6197431898 -0.0342781471
H -1.9378784568 -0.5976118176 1.4529332845 -0.3915910354 0.4911391883 -0.5604024399
H -3.2624342927 0.5076262986 0.8681819292 -0.0515176572 -0.1333300145 0.4184517733
H -2.4106857869 0.7325022555 -1.2102756921 0.2685118304 -0.1924559604 -0.3209825893
H -1.9253304084 -1.0181651343 -1.2714932619 0.2105260938 -0.2195497941 -0.7168747697
H -0.5841213908 2.4120460557 -0.1829065417 0.0526223567 0.5274967988 -1.8019533486
H 2.0629325458 2.0906092573 0.2762441075 0.8381696668 0.1369138926 -1.4659791730
H 3.2052480626 -0.5805685715 1.2507974225 0.1880292512 0.3824419205 -0.6849638537
H 3.6802251240 -0.1736378300 -0.5016446665 0.0361964266 0.2484245643 0.2950771215
H 2.8589952331 -1.6969860717 -0.0764806401 -0.2414598282 0.0308633753 -0.2114954142
H 0.3528385529 -1.7247172938 -0.4226507916 0.0342660667 -0.3484574844 -0.1070928163
F 1.4746607278 1.9110523666 1.9127627227 2.7430924355 -6.7321191889 -10.1507676002
P 0.0655450782 2.2416703748 2.7702218703 0.5816833468 -23.8647096608 14.7959883488
F -0.5616712161 3.4995000253 1.8706706115 -54.1933801065 -1.1909934693 -26.3880310005
F -0.8875473844 1.8118191995 1.4519937161 -1.8711398500 -5.9582257090 -3.2365383247
F 0.3933177301 3.7998538847 2.2678773926 43.1714623110 30.5506304852 11.4279147803
F 1.4873047963 3.0509677228 3.0798807226 13.4528850468 4.8971555848 15.4004541049
F -1.5064112034 2.1847375344 3.3091356428 -4.8640760182 2.7107907897 2.4755910333
26
energy=-34485.2334879590 config_type=IL_pair name=EMIM-PF6 Properties=species:S:1:pos:R:3:forces:R:3
C -2.6611741033 0.6499587025 0.2508974202 -0.4111676284 1.5282620685 0.9217439631
C -1.8695805889 -0.6504010634 0.3817744854 -2.2557536734 -0.9794037942 0.9761054454
N -0.5307442072 -0.4626596954 -0.1156997248 -2.3350082307 -0.8835226283 0.8730805519
C -0.0710965441 -0.6440239916 -1.3686223219 2.9860870755 -0.1382499446 -3.9374406366
C 1.2925473073 -0.3323738547 -1.3452566627 -2.2821221013 -1.2618023071 -3.6765467884
N 1.6050002220 0.0251532655 -0.0804027585 3.1582535305 0.7736113585 1.1032416246
C 2.9025681030 0.4368973840 0.4489519456 2.2243004081 0.2170498355 -0.3904373555
C 0.4905772533 -0.0538081797 0.6740753449 -0.3780268903 0.5158825804 5.1606530522
H -3.4891642917 0.6986938096 0.9964040311 0.2657953546 -0.2641879104 -0.5288689848
H -3.0712006199 0.8121381513 -0.7515929749 0.0884720261 0.0497574940 -0.1739553770
H -1.9456942637 1.4658434800 0.5438836742 -1.3259208951 -0.9310700688 -0.9479039751
H -2.3896399294 -1.4786235782 -0.1323233737 0.2524779830 -0.1392082649 -0.2616102562
H -1.8450388534 -0.9190580889 1.4585534607 0.4154843696 -0.0584163558 -0.1423036850
H -0.6470695455 -0.9696284687 -2.2323739357 -0.3785338901 -0.0600956094 0.0498139518
H 1.9887033850 -0.3640042599 -2.1729167127 0.4652344829 0.0663058953 -0.2224652764
H 3.0114766553 1.5477104536 0.4152090889 -0.4460708623 0.0609156908 0.6235754084
H 3.7190903818 0.0189655919 -0.1803625836 -0.3858979106 -0.0268637475 -0.1005098264
H 3.0865091215 0.0453011765 1.4673607799 -0.4835519216 0.2605210154 0.0499798151
H 0.4239305180 0.1739191657 1.7424408178 0.0184313436 1.1465284921 0.4548927448
F -1.3313306788 2.6023389714 1.4983134755 -8.2002427325 -38.0314741256 -31.6918146533
P 0.1355142577 3.3166371414 1.8738601642 22.8972198090 8.6337849048 -4.4720456376
F -1.4972580425 3.3797394573 2.2498457434 -20.7006864009 31.8377039507 30.3039476060
F -0.1272764864 3.2524062585 3.5325378186 -0.1417768450 4.8608935533 6.9216235587
F 1.6628250794 2.7109284117 1.6524665036 7.5173574488 2.6580947198 -3.1734562379
F 0.5696138112 4.8955704893 2.1739064631 1.4773794932 2.4499799837 1.1033875485
F 0.4441196544 1.8772863488 2.6391403074 -2.0349050453 -12.2760857249 1.1900689205
26
energy=-34466.8230806019 config_type=IL_pair name=EMIM-PF6 Properties=species:S:1:pos:R:3:forces:R:3
C -2.6202374478 0.5910117426 0.3898003899 3.4900426981 5.6459412381 1.4579469252
C -1.8865121015 -0.1903545294 -0.6927939018 -0.9556261546 7.0673917277 -3.6201731230
N -0.5112705864 -0.3852143423 -0.2632869365 -1.4556275971 1.4962830850 -2.2706783968
C -0.0262237506 -1.4256852044 0.4575836845 17.7027462435 0.7515222348 -2.3020210176
C 1.3227526771 -1.1860101856 0.6265079636 -0.4753145090 -0.9385882311 1.3216224496
N 1.5873644626 -0.0295094155 0.0095634066 4.6851750852 1.7139499426 0.5189785022
C 2.8994814953 0.6281929944 -0.0749657072 -0.5579645508 2.8901379301 -0.1010062104
C 0.4917397785 0.4754058569 -0.5375267246 -1.2280843948 3.2827004673 -2.2562841588
H -2.8408858369 1.6376602517 0.0295128883 0.1880338415 -0.8391103057 0.2952752777
H -3.5286957056 0.0594877283 0.7219197971 -0.3441000326 3.1622268240 -0.5575252600
H -1.9677667355 0.7145523976 1.2907457053 -0.0406546616 0.2327350725 -0.6987206431
H -1.8751322745 0.3699108436 -1.6361042371 0.5807440942 0.7865900634 -0.0994566189
H -2.3989486190 -1.1493791359 -0.9003049350 1.0556886522 0.9629971475 -2.5239833792
H -0.5840741970 -2.2859705190 0.8337335645 16.3467519371 -10.7249111249 0.8909704259
H 2.0596966004 -1.7753515572 1.1408213205 0.6635292721 -0.2349349546 0.1774310944
H 3.1246248214 0.7483806283 -1.1382580806 0.8922797521 -0.2722577145 -0.3675953738
H 3.6526297277 0.1325488946 0.5359216798 0.3445601829 -0.4440512744 -0.0354595711
H 2.7153578957 1.6746709501 0.3080631564 0.6494221554 -0.7199042461 -0.0692100691
H 0.3860997963 1.3956526012 -1.1009330338 0.1850883978 0.3085935789 0.0004899388
F -3.4853206019 -3.2771760879 1.2451217676 23.6829953356 -24.8336272867 22.6484502091
P -3.0283770633 -1.7494793319 0.7864363767 2.9609164441 11.1160381931 4.3815290750
F -4.3186366435 -2.7665430899 0.5704876308 -33.9885926367 8.4761811350 -21.6114024002
F -3.1246669590 -1.4574274874 2.4363732412 -0.6563666191 -0.2287719838 2.7618433215
F -4.3402878173 -0.7544549108 0.5486798879 -11.0132814752 0.5975479102 -0.4673364129
F -1.3717909149 -1.9582149629 0.8223845749 -12.5910581570 5.9235631034 31.7799386720
F -1.9764887474 -2.2043539870 -0.4501707741 -10.1109523763 -15.1716119259 -29.2389012670
26
energy=-34487.3086235510 config_type=IL_pair name=EMIM-PF6 Properties=species:S:1:pos:R:3:forces:R:3
C -2.5295007440 0.8528638745 -0.3131763248 0.3753300513 0.9977999698 0.7126600253
C -1.8721718420 -0.4635646399 -0.7481370536 -0.8783649066 0.3772920870 -0.4905533501
N -0.5442104888 -0.4313409696 -0.1220125201 -3.4420317303 -1.2633079154 -1.8546663059
C -0.2585884628 -0.9148376116 1.1009828582 1.6833276146 -1.0398909914 3.2903136787
C 1.0869217434 -0.6905381409 1.3102109398 -2.1009076955 -1.9082261979 3.1097731033
N 1.5759252382 -0.0767390458 0.2050552931 3.2740882538 0.1190352424 0.7791846550
C 2.9492273036 0.3424785752 -0.0037504442 0.9137535743 1.2488133687 -0.9543180746
C 0.5701505210 0.0814461971 -0.6744231165 0.4167704470 2.1334761632 -4.3636142705
H -2.0373635411 1.6378011386 -0.9254386025 -0.8776217263 0.0822666439 0.2449602999
H -2.2632692046 1.0689983722 0.7561218558 -0.0039530777 0.1583801426 -0.3817775557
H -3.6167097522 0.8222977187 -0.3744096580 -0.3817878900 0.2533122017 -0.5719360961
H -2.4637630463 -1.3293606392 -0.4065455321 0.2931034071 -0.3163861779 0.0648238969
H -1.7555609824 -0.4807148021 -1.8512795383 0.0370702103 -0.3193740319 0.1453288760
H -0.9890869559 -1.3779723378 1.7449027665 -0.4483439094 -0.2339101416 0.3517991833
H 1.6176100988 -0.9703362826 2.2099701758 0.7334988836 0.1267005293 0.1848019289
H 3.1382776942 0.3181956280 -1.0946848238 0.1564127598 -0.0276949473 0.0880052687
H 3.0593132361 1.4042665501 0.3279556475 0.3451059282 -0.3991755356 0.1298457929
H 3.6538597494 -0.3341439408 0.4961430082 0.1084654599 -0.0104883564 0.3258899287
H 0.6789394351 0.5412003560 -1.6374849310 -0.1290693977 0.2666704620 -0.6275713244
F -2.5874082623 3.3151831450 3.0170456739 -2.5637549128 9.7062407474 1.7357769359
P -1.6269033798 2.2013508576 3.7932442562 12.2794567105 8.9183928991 9.2872107740
F -0.0007683137 2.3236307296 3.4910560002 4.2998228793 1.8511578249 -0.1856607369
F -2.9802232721 1.4042284447 4.3058318561 -10.4030726206 -6.9073941876 11.5992949755
F -1.5314647954 2.1340341170 2.1136496299 3.3564532369 5.7310333312 -15.5419340825
F -2.8514578085 1.5198246185 2.9020556905 -16.5052690211 -3.8125962373 -11.3267206894
F -1.3286559950 0.7912108751 2.9335088672 9.4584372079 -15.7374000945 4.2559712229
26
energy=-34449.8889152655 config_type=IL_pair name=EMIM-PF6 Properties=species:S:1:pos:R:3:forces:R:3
C 2.6898209305 0.5677967989 -0.3753254247 0.0655034309 -8.6828362227 34.4128445908
C 1.8617628284 0.2435927404 0.8384948503 -1.2493779467 -2.2526460105 4.5936883601
N 0.5110918455 -0.1800033961 0.4875770156 5.3266624203 -0.7351134137 2.5033462166
C 0.0822067609 -1.4433171475 0.2433294520 -1.9029779390 -4.2180132115 -0.9012192059
C -1.2734008404 -1.4008046527 -0.0538458387 2.8592910969 -3.7778220198 0.2665282141
N -1.6224255474 -0.1005686981 0.0213413467 -5.2161202346 0.7144866677 -0.9598862837
C -2.9692295660 0.3988077183 -0.2201133428 -0.8317093615 0.7513629950 -0.7774094568
C -0.5323968368 0.6442183742 0.3519510914 -0.6952223358 7.8042032407 0.0361247241
H 3.4405066162 -0.2356683554 -0.5252393038 1.9662958412 -1.7196140588 8.2277143089
H 3.1747302888 1.5721829122 -0.2876029598 -0.4790193197 -3.5724057720 7.7091633279
H 2.0895791923 0.5984687468 -1.3091683145 -22.0239161003 1.9298376185 5.9423532034
H 1.8561407791 1.1320032402 1.5007423186 -0.4869427296 -0.1393515412 -0.0483534152
H 2.3345765776 -0.6034927097 1.4064609987 -0.5447165148 0.4879489414 -0.0392826797
H 0.7179903408 -2.3297947925 0.2807460407 0.1954777619 0.1233534376 0.0529492968
H -1.8991558515 -2.2595345335 -0.2943758703 -0.4381699551 0.2620124728 -0.0947309253
H -3.6963800624 -0.0004615210 0.5166865700 -0.1502144326 -0.1829339156 -0.2345995678
H -2.9871077993 1.5022651140 -0.1322770993 0.1932897831 -0.1282393379 0.1031558737
H -3.2778804713 0.1642054283 -1.2789928682 -0.1606436983 -0.1030105720 0.7547555175
H -0.5004291850 1.7301047334 0.4868348585 -0.1789439763 -0.5480809818 -0.1083455787
F 5.3364283481 1.3824409419 -3.0232654322 4.2717851627 0.3823704909 0.1044529992
P 4.0108812351 1.1415796151 -2.0542136624 33.2309083270 -2.9440738328 -12.5755796740
F 2.5396652652 1.6762864113 -1.4485897903 -16.2710180678 35.9221557889 39.6514717763
F 3.9220919371 2.1735279061 -0.7659927895 16.5651745370 12.9040650711 5.9415367020
F 2.4471459740 1.5004782701 -2.4858441516 -25.6179220472 5.2087241865 -69.0229127913
F 2.7364574601 0.1491114218 -1.6230302035 6.6093353542 -36.1599202602 -25.3417672143
F 4.6730441061 -0.1360400127 -1.1834888824 4.9571251156 -1.3354525214 -0.1927853049
26
energy=-34470.9018297984 config_type=IL_pair name=EMIM-PF6 Properties=species:S:1:pos:R:3:forces:R:3
C -2.6485564146 -0.4142094732 0.5320509243 -1.6202141840 -1.9100829690 0.7132894626
C -1.9242408797 0.1165835876 -0.6721012407 -0.5316477232 1.5285669833 -1.0744431488
N -0.5295821158 0.3447855633 -0.3043158533 -1.5577892126 -2.9985598008 -2.9501032056
C 0.0217756829 1.4617620464 0.1958816791 3.7066412257 -1.0965430778 -2.1744320675
C 1.3811148552 1.2073803835 0.3895894394 1.3679351216 2.5685358194 0.9847486094
N 1.6121887598 -0.0671016108 -0.0029424747 0.4097946862 -1.8017437051 -0.4852177275
C 2.8712782263 -0.7899445619 0.0081477942 2.3502087432 0.2525224315 -0.9641751398
C 0.4327149071 -0.5902865595 -0.4280780930 0.9454994892 -4.8905180739 -1.3471808320
H -2.8605464471 0.4120423098 1.2172536741 0.0991389755 0.1402078756 0.3626905980
H -2.0084934764 -1.2015647946 0.9865601053 -0.4430501971 0.4094797047 0.2197610277
H -3.6024117001 -0.9036046951 0.2045417428 0.5000386413 0.4471163104 0.4108538290
H -2.0250755117 -0.5827277150 -1.5083458693 0.3512080011 -0.1365659474 -0.5051814530
H -2.3161849819 1.1266231604 -0.9450277120 -0.1833743531 -0.2934136390 0.0579030184
H -0.4886797730 2.3939836632 0.4122379645 7.6254721151 -7.9345643402 -14.7823776782
H 2.1253711623 1.9110599549 0.7869311051 0.0059852958 -0.5959563704 -0.4010923763
H 3.7040317181 -0.0360259829 0.0361022032 -0.5604097782 -0.4529626975 0.3263437954
H 2.9589276761 -1.4693132205 0.8679520894 0.0081806103 -0.3111109289 0.1050784713
H 3.0059383376 -1.3115747987 -0.9672443095 -0.2121662185 -0.2907868774 0.5112550049
H 0.2904299749 -1.6078672571 -0.8091931689 0.1193431510 0.1555178802 0.1786807908
F -1.8454846902 3.0789458929 2.1715789123 6.0980640223 -11.2687144660 27.7586852036
P -1.0345373415 3.3948921494 0.7310707587 0.1256446369 16.7631765429 -11.0054613312
F 0.2392087454 2.6880364868 1.5177596336 19.9812154518 6.5476207492 10.4932476027
F -2.5068606719 2.6409664281 0.7437677456 -11.4752473960 -9.3914697456 -14.1895079782
F -2.3076308318 4.0895607791 1.5627674145 -12.2732540296 28.9865247243 -1.0916235601
F -1.0099194582 1.8335405993 1.3497594635 -15.5384377537 -25.0796452248 7.9265305381
F 0.2351518409 4.3843061996 1.1727773512 0.7061810767 10.6591114735 0.9317494324
26
energy=-34467.1026719469 config_type=IL_pair name=EMIM-PF6 Properties=species:S:1:pos:R:3:forces:R:3
C 2.7016653806 0.1492206169 0.6091895531 2.0340019575 1.0597370105 1.2704857213
C 1.8602307133 -0.6470528144 -0.3386155860 1.6239654816 -2.2193076168 -1.1940444742
N 0.5069247401 -0.1594418581 -0.4162710821 1.6070234554 -3.2092576196 -0.1403362705
C 0.0064309648 0.7720618459 -1.2558618273 25.6259621623 -8.4198115767 63.9283620209
C -1.3406284516 0.9043916436 -0.9520628825 -8.8090900372 0.3680254846 10.1558123931
N -1.6426327956 0.0504429581 0.0698971980 -2.6611993869 1.2065862460 0.4817227569
C -2.9455710699 -0.1325257982 0.6994376088 -1.2553052303 -1.4662743752 0.2842601221
C -0.5063407405 -0.5668216621 0.3594571082 0.3715678327 -5.0977679342 5.1204108634
H 2.1547988624 0.3050840832 1.5667484675 0.6222452551 -0.0093689454 -0.3214554594
H 2.9905644650 1.1187595260 0.1512054540 -0.4997832632 -0.0870586235 0.3375895007
H 3.6713153077 -0.3972667553 0.7501758868 -0.7646055189 0.3071436546 0.3766621097
H 1.8554105979 -1.7151732736 -0.0353769907 -0.2235546284 0.0523440057 0.0958564368
H 2.3700214762 -0.6306945009 -1.3317024177 -0.6554824521 0.1721893139 0.0234307602
H 0.6019149991 1.2708203422 -1.9917041452 21.2840947488 -3.6808158526 8.4401566542
H -2.0336939533 1.5678054686 -1.4383618973 -1.0553991249 0.8922088875 0.7414479051
H -3.4973512011 -0.9901570230 0.2441838093 0.2631836472 0.1438747572 0.2264119006
H -2.7750765883 -0.3243101176 1.7584551208 -0.1837976658 -0.1500733396 0.6300495965
H -3.5732108219 0.7488368034 0.5729272788 -0.0325968749 0.6804733260 -0.0896000237
H -0.4047718847 -1.3239794848 1.1430848659 -0.0695886525 0.1232273173 0.0825724702
F -0.4060007361 0.9468288461 -2.1347785727 -44.7277310089 -2.3915941532 -75.1355854331
P 0.5447130147 2.1210275346 -2.8619074161 6.4988970706 18.5334728545 -12.7159078631
F 1.4456681654 3.1453233580 -3.7983650704 -2.2513928538 8.0468832012 -7.9949980545
F -0.0025421113 3.6462922512 -2.5210498707 -5.6898503763 4.9681652804 -0.2480653172
F -0.9200412840 2.0912970952 -3.6454673299 -1.9047446092 -0.9248821473 -3.5171572143
F 1.0812267468 2.6749555317 -1.3818262677 3.9575906233 1.1652322247 6.2810652784
F 2.1598781007 1.8081169086 -3.0891370317 6.8967621621 -10.0506473997 2.8734848379
26
energy=-34452.0237252355 config_type=IL_pair name=EMIM-PF6 Properties=species:S:1:pos:R:3:forces:R:3
C 2.6397617903 -0.4197064680 0.4621835913 1.2172643471 -0.4209687536 1.1898984741
C 1.8324726243 -0.3573961174 -0.8289796212 -2.9197659894 0.9171567325 10.7643449592
N 0.5247224636 0.1559967627 -0.4851745649 6.0824196720 -1.6911122120 -1.8442213159
C 0.0905712685 1.4309266210 -0.4466939441 -3.6804544345 3.9188033988 0.8582304512
C -1.2521057453 1.3782327464 -0.0539894639 1.6819836024 4.0122653559 -0.7303464494
N -1.6010167591 0.0821297162 0.1359031177 -4.7972090527 1.7595668873 0.5019449309
C -2.9211152030 -0.4145292700 0.5524694157 0.6523240325 -1.1738157370 0.6860275126
C -0.5016077927 -0.6328722535 -0.1337176720 -0.8866117523 -9.1462767272 0.7959087018
H 3.6069263412 0.1048238863 0.3233186645 0.1207999002 -0.4080771390 0.1788013786
H 2.8214013325 -1.4908914491 0.6975505116 0.1723525296 0.5803599665 0.5273355393
H 2.1200516846 0.1061704043 1.2938452757 0.2023938542 -0.5396535483 -0.2406943237
H 2.3342466858 0.2944386407 -1.5675470927 -0.6994442281 0.2563947915 3.8177635213
H 1.7155718058 -1.3507787637 -1.3118232998 -0.3877865183 -0.0821121070 0.5622528199
H 0.6664591112 2.2988120930 -0.6730292530 0.7611354595 0.7707303015 -0.1693955053
H -1.8940067020 2.2499317150 0.0723150225 -0.4198467490 -0.1755999738 0.1218630560
H -3.1007189094 -1.4345869394 0.1502225056 0.1421863792 0.2241082837 -0.1578441288
H -2.8730019407 -0.5276271064 1.6625808362 -0.7067569346 0.1952658802 -0.1111308207
H -3.7222283368 0.2438434476 0.2144394427 -0.3504574585 0.4823001181 0.1137787589
H -0.4863837188 -1.7169176657 -0.0638734718 0.2580472801 0.2018823268 0.0344870733
F 1.0761723031 -0.1000490710 -4.0110154102 -41.0650867044 -42.2885487646 -28.4316519655
P 2.2934124940 -0.3364699895 -2.9056903083 1.0676434054 -25.3248675562 4.3598117166
F 0.8854501726 -1.2061884307 -3.0139040297 -6.2514320856 -18.6616315586 13.0947803307
F 3.6361398442 0.4176869741 -3.5887485549 21.3405700161 9.2109311676 -35.0482874176
F 3.1281293823 1.1021592448 -2.8259746045 -6.6063217256 40.0498511592 23.9159165647
F 3.8404030221 -0.9065999371 -3.1475189990 10.6497215428 -32.3135950779 7.9737595855
F 1.5764535130 0.7989458335 -3.8824971904 24.4119842022 69.6164308931 -2.7467905003
26
energy=-34470.6913570624 config_type=IL_pair name=EMIM-PF6 Properties=species:S:1:pos:R:3:forces:R:3
C -2.6617627147 0.5953702621 -0.2312611626 -0.5674107939 -0.1375542069 -2.2253803771
C -1.9100385785 -0.2465283816 0.7764044911 -0.4930149480 1.3954151958 1.9366374430
N -0.5243554383 -0.3281960336 0.2992630739 -3.3402804286 -1.1840546745 1.4313661134
C -0.0935001917 -1.2999616020 -0.5239921495 2.3596220855 -1.9634321944 -2.3612484389
C 1.2459144093 -1.0423569242 -0.7452204113 -1.5892315994 -4.2148254344 -2.9432930575
N 1.6102211469 0.0661144279 -0.0648602965 2.6746530912 1.4010070646 -0.8741831703
C 2.9423598054 0.6338572966 -0.0627025824 3.4439498272 -12.4341708429 -14.9531621294
C 0.4985490226 0.4940535165 0.5764042681 -0.1695788971 3.4594399090 1.9865207261
H -3.7376108910 0.6827751374 0.0134428996 0.3164900325 0.2194790115 -0.0551712623
H -2.1496659335 1.5717278154 -0.3265378732 -0.5306049820 -0.0368995996 0.1005990506
H -2.5401793105 0.0645424954 -1.2171103291 -0.4997179867 0.6676815712 0.6010824233
H -2.3691261484 -1.2280264039 0.9271716142 0.1518097489 -0.6026671444 -0.0977744283
H -1.9235505172 0.3020156614 1.7469952405 0.2170591853 -0.4299899230 -0.0596135888
H -0.6707940809 -2.1124908257 -0.9289078362 -0.7108681372 -0.4137541159 -0.0153857266
H 1.8751570649 -1.6737508263 -1.3857344358 0.3933393206 0.5030659589 0.2618446481
H 3.4360826555 0.5616261457 -1.0561298183 -1.0003061712 -1.4403642467 -1.0709901855
H 3.5526044048 -0.0360090690 0.6107801393 -0.3206309880 1.3383876116 -1.1161277104
H 2.9517031381 1.6325880079 0.3868966805 5.3895564704 0.2889824468 -13.9906343965
H 0.4679921570 1.3626493000 1.2050984878 -0.5276931435 0.3874198308 0.1750150055
F 1.8464015121 1.5285330416 2.2754466873 -26.9990323259 -10.0003087295 -12.4263475153
P 3.3626452405 2.0734163921 2.6840920233 21.0276442472 9.2605967839 7.9271365198
F 3.4825515198 0.6003310870 1.8936001366 9.4141738418 -11.8309079535 11.1974100678
F 2.0577180665 1.2780292784 3.3914781050 -8.6693131761 -14.5875704583 38.1372272942
F 4.9713822727 2.4000727032 2.4304922066 1.5256569801 1.0199161930 -3.0002025418
F 2.2366450847 3.1087267407 2.0325290444 -1.5114442163 21.6348385397 2.6242812136
F 2.6987704889 1.8035880670 1.1803785013 0.0162861693 17.6974446682 -11.1987599806
26
energy=-34484.2524888918 config_type=IL_pair name=EMIM-PF6 Properties=species:S:1:pos:R:3:forces:R:3
C 2.7008282211 0.5159569689 0.0643089201 1.7649858121 -2.3413429072 12.6248076195
C 1.8337308326 -0.7005362269 0.3718767631 -0.6388320832 -1.3143676164 1.4416168326
N 0.4694502492 -0.4871175915 -0.0504727712 5.1789204394 -2.1742657374 1.9651112601
C -0.0248730204 -0.7900674510 -1.2573742312 -3.1712604608 -0.5616082213 -4.3745631233
C -1.3531424784 -0.4250133064 -1.2326912098 0.5866147560 -1.8514047471 -4.7723091754
N -1.6357165407 0.0824971173 -0.0361889227 -3.8128231405 1.1196808112 0.9828731707
C -2.8855490852 0.6092065863 0.4946964587 0.6831612870 1.8735901999 0.4320689453
C -0.5091068392 0.0523805864 0.7175168849 0.5520780428 2.3742927635 5.8879049344
H 3.3749905665 0.3198501504 -0.7887615308 4.2172358187 -6.8792802947 5.6476194352
H 3.3128767174 0.8224415004 0.9449255086 -0.2994134276 -0.3075112296 0.4215453146
H 2.0541252962 1.3961420471 -0.1511222661 -2.2975257926 -0.0774193751 4.0279140988
H 2.2604239522 -1.6028724255 -0.1088196133 -0.2453215200 -0.1341572542 0.0657527397
H 1.8333265868 -0.8229764733 1.4738986879 -0.0991158960 -0.3479174224 -0.1895971575
H 0.4792589597 -1.2290419511 -2.0992821597 0.7411322353 -0.3144823631 -0.2247702232
H -2.0823283316 -0.5203219922 -2.0386718274 -0.1650611572 0.0518325203 0.0444617684
H -2.6877128707 1.6965068873 0.6704290840 -0.5070417150 -0.1522333467 0.1110846662
H -3.0211928607 0.1540060873 1.4803440846 -0.8002753741 -0.3420025736 0.3124767926
H -3.7169250499 0.5326153690 -0.2046294176 -0.4301061929 -0.5345876363 -0.1869083892
H -0.4024643048 0.3963441174 1.7500175577 -0.0921938074 -0.1940259865 -0.4198472189
F 2.8197478547 1.1229094530 -1.3353351949 4.2939210022 1.9048542950 12.0301460140
P 3.9046418317 1.7485063454 -2.4287757423 7.6060141336 6.0199130264 -2.8188194381
F 4.2421386307 0.4754476610 -3.4449200890 0.0995038835 -1.0773712973 -1.5642396811
F 2.3271534132 1.2445075009 -2.5589619697 -16.2798330191 2.1948866213 -29.8815071436
F 3.2329131654 3.1407648539 -3.0462940806 0.2955263835 1.4739462557 -4.2188659799
F 3.8772025725 2.8293436757 -1.1624262053 0.8597980021 1.8993903911 3.1738437179
F 5.5062476835 1.6689300823 -1.9823915366 1.9661114430 -0.3156386541 -0.5245124947
26
energy=-34480.9133144926 config_type=IL_pair name=EMIM-PF6 Properties=species:S:1:pos:R:3:forces:R:3
C 2.7716845035 0.0636418843 -0.4405880535 2.9639093734 -0.1729015724 -1.8820533092
C 1.8776352176 0.0710101122 0.7789978634 0.7713761067 -0.1354178878 1.2635334997
N 0.4806768611 -0.1249145239 0.4346276093 3.7461447891 -0.9271117991 1.3026593027
C -0.1248024468 -1.3235523196 0.3546560344 -2.5556364664 -4.8574125509 -0.3680086844
C -1.4476728288 -1.1577102478 0.0067131339 2.0983178904 -3.4568571887 0.8058651211
N -1.6258815207 0.1839966854 -0.1222384856 -5.7681352048 -0.2323211382 -1.9456186971
C -2.9135334597 0.7828060254 -0.4881463982 -1.0032399244 0.2696561630 0.9101229690
C -0.4627977504 0.7853848012 0.1371988859 1.5136331390 7.8431186685 0.5871156540
H 3.7825137546 -0.3746904960 -0.1934074914 -0.8736974198 0.4716726814 0.0498432029
H 2.9849151088 1.0904461344 -0.8055490543 -0.4001425680 -0.4177586599 -0.1831349590
H 2.3975011936 -0.5801555146 -1.2629459528 -0.2480021044 0.4452118309 0.2543587674
H 2.0224355998 1.0398056958 1.3149459819 -0.3063452098 -0.4716187610 0.2010409078
H 2.2091806269 -0.7968778524 1.4014345865 -0.4796330835 0.5481608725 0.2333507095
H 0.3299650664 -2.2961011209 0.5312032421 0.5528853873 0.0602904510 0.1484893603
H -2.1702841523 -1.9500890915 -0.1284088145 -0.6199422274 0.0276351491 -0.1769361441
H -3.5330201217 0.0331736088 -1.0217994439 0.3510027769 0.2288931844 -0.3904346114
H -3.4881078553 0.9850268730 0.4613828078 0.2733495687 0.4831308719 -0.5436178019
H -2.7718512612 1.7225345550 -1.0660760849 -0.1378827081 -0.3101421357 0.1150432566
H -0.3185565354 1.8462647910 0.1079996338 0.1759208669 0.6035653971 -0.0262115407
F -3.3724088806 0.6910720970 2.8011333111 -32.9543062270 -0.0804485731 -19.4141634313
P -2.1697050799 1.8046768556 3.0153171386 7.8410348862 19.4509908524 -6.8902165513
F -0.5828957824 1.3583307194 3.1739719471 11.7047257906 -4.2145211217 -7.2024139534
F -2.5551370388 0.2572556442 3.4810819776 22.2129288507 -34.2118630187 9.9796067132
F -2.9219548440 1.4406477394 4.4663631737 -15.0542592334 9.6126987033 11.9498928788
F -1.3503167933 1.8549558314 4.4850300749 6.5560721801 6.5716394945 9.8934887580
F -2.9999045863 3.2433059090 3.0776707512 -0.3582069474 2.8650802926 1.3168310121
26
energy=-34488.5718845817 config_type=IL_pair name=EMIM-PF6 Properties=species:S:1:pos:R:3:forces:R:3
C -2.6505133191 0.7446877805 -0.3409583816 -0.8442592658 2.2062825025 0.1135451005
C -1.9551801492 -0.5192111682 0.1236615246 -2.4870593186 -1.7849968230 -0.9893733144
N -0.5263962687 -0.4054758734 0.0442881041 -1.1907922377 -0.5072529844 0.0282775500
C 0.2162324211 -0.7422818388 -1.0419405638 2.6036783009 -1.3211798362 -3.4822879246
C 1.5586698607 -0.5046075485 -0.7712437550 -2.8600212032 -4.0904656027 -4.7560398589
N 1.5904367315 -0.0248212503 0.4866274341 -0.0912640328 -2.6597840442 5.7553645131
C 2.8075803418 0.3513274452 1.1561217207 4.1301055597 -6.2794059809 3.8297632473
C 0.3460526403 0.0409566129 0.9907977426 -0.4722441401 0.2504616162 3.4390192310
H -2.2295907108 1.6425936804 0.1899514552 -0.3713146987 -0.6500293472 -0.5474064723
H -2.5712133464 0.8849480373 -1.4352117431 0.2328031533 0.0340465711 0.2747262304
H -3.7253826747 0.6774188163 -0.1001831214 0.0728181460 0.0474756020 0.0046814602
H -2.3373559408 -0.8263201556 1.1092587533 0.4950984147 0.0972060127 0.5077418221
H -2.2861611519 -1.3324802757 -0.5863212190 0.5180547845 0.3342605764 0.5876919890
H -0.1744072914 -1.1388374470 -1.9848070680 -0.3476561749 0.0756650302 0.2566339169
H 2.3843226326 -0.6797867724 -1.4529187471 0.5541597579 -0.1113754737 0.2277117136
H 3.6210571741 -0.3783760193 0.9538413692 -0.7719084920 -0.8212896841 0.4321731736
H 3.1822782167 1.3391527085 0.7863720983 0.2205431955 -3.3805644585 4.3930240896
H 2.6633529073 0.4832633271 2.2568672069 -0.0945639136 -0.5766496343 -0.7323229027
H 0.0862179268 0.3878499410 1.9753403565 -0.0744683136 0.2120659052 0.5700923075
F 3.5917271903 3.9865654752 0.1028241811 5.1034419491 4.6524299695 -0.0869777754
P 3.1097256319 2.5213058645 -0.4928581808 -4.3671377941 10.7755409652 -4.3606706456
F 4.4057293797 2.1674993556 0.5006205754 7.9674128681 -5.6351777126 10.9872229410
F 4.6972943174 2.4390080634 -0.9746511902 7.2696556376 0.9258643859 -12.9085992911
F 1.9440096287 1.3380705419 -0.4169545855 -2.4838012168 3.1652822016 -6.5562844554
F 2.7707541746 2.4303951308 1.1291758906 -6.2521595167 4.7544967135 6.1894879870
F 1.8452761185 3.6011362179 -0.4763880620 -6.4497263810 0.2923611642 -3.1860911070
26
energy=-34483.9315312348 config_type=IL_pair name=EMIM-PF6 Properties=species:S:1:pos:R:3:forces:R:3
C -2.6223348677 -0.3144378097 0.7678547874 -0.3851938129 -1.7151999843 2.5402329346
C -1.9573466835 0.3418532018 -0.3999495444 -0.6905649044 -0.0714139993 -2.1906842885
N -0.5306858023 0.0043055223 -0.4336344292 -4.2220360088 1.7441956698 -0.2897232012
C 0.0518894212 -1.0373053022 -1.0546526817 3.3055688788 -2.3825013179 -1.1503273211
C 1.4086824764 -0.9162109192 -0.7896206300 -1.3382841510 -3.6874836806 -2.6903116899
N 1.6083219043 0.1859212069 -0.0220573531 3.7277669461 -0.5895632681 0.0106797852
C 2.8880743949 0.6619164680 0.4709359867 0.9858674671 -1.0910234148 0.4743605137
C 0.4088331767 0.7555203180 0.1982969557 -1.2551617586 4.4359776937 2.8653718652
H -3.4950647093 -0.9109227886 0.4656022582 -0.1473598234 0.1417581612 -0.0362650148
H -1.8933348161 -1.0398560266 1.2293846357 -0.7517155853 0.7289156468 -0.1408142332
H -2.9337400700 0.4452049805 1.5427040283 0.0703796194 -0.1879490640 -0.0931650524
H -2.1050748077 1.4387287948 -0.3905709274 0.2758404695 0.1618606088 -0.0534583532
H -2.4151021736 -0.0760382020 -1.3289020211 0.3617490394 0.4465303726 0.0741014365
H -0.4475204344 -1.7997537398 -1.6345533321 -0.4670241595 -0.2152191278 -0.2186581002
H 2.1515778881 -1.6191834840 -1.1613695052 0.5934729457 0.2232305713 0.2275318206
H 2.7858512472 0.7260754538 1.5714581132 0.5127292829 0.6061635369 0.0188541634
H 3.6726364021 -0.0920273600 0.2182673725 -0.4042643749 0.3016423825 0.1971030730
H 3.1526146641 1.5917625553 -0.0329148040 0.2402538533 0.9233966049 0.1961107888
H 0.2717227898 1.6544471305 0.7837210905 -0.3418876227 0.1543281708 0.0600677606
F -4.5019732468 2.2634925786 4.0728295165 -22.6944143582 -22.6150062078 26.6795881126
P -3.2146929896 1.9904033470 3.0564035474 16.3261787917 -7.6398420677 -10.0086180716
F -4.1565501303 3.2618765787 3.6195297058 -7.0124448215 36.6984974919 -8.8774495747
F -2.7711846881 2.7259607437 4.5034095780 6.0579088077 0.1110533241 6.4297879069
F -2.9633418774 3.5678963575 2.5506525155 7.0250343813 6.1229062106 -7.7443784875
F -4.5889574091 1.0864263956 2.8461885488 -3.7330772878 -8.2160612052 -5.3273723593
F -1.7772903778 1.3485131913 3.5758505105 3.9686988603 -4.3738469931 -0.9173890097
26
energy=-34470.7600481379 config_type=IL_pair name=EMIM-PF6 Properties=species:S:1:pos:R:3:forces:R:3
C 2.6141310832 -0.8179200622 -0.3693581730 1.4261315333 -0.9212268632 -1.3192214320
C 1.9331599425 0.1438799407 0.6082083476 0.3817651981 -0.4135646758 0.1551193968
N 0.5413515608 0.3659805018 0.2023778709 4.7625097521 0.8590723618 1.0045074328
C 0.0744818119 1.3299503796 -0.6337716737 -2.4207104627 2.7055656561 -2.6139378819
C -1.3057495101 1.1590403550 -0.7283250324 3.1374338842 3.3821033685 -2.1345228877
N -1.6020238280 0.1043103518 0.0525963321 -5.2013972568 -0.7150400000 -0.0024892412
C -2.9503071000 -0.4218255059 0.2428824781 -1.4828181546 -0.0242498166 -1.1418877130
C -0.4924255932 -0.3874552259 0.6237818927 -0.0850446562 -4.6018749662 3.7815027382
H 3.6780015249 -0.5217940809 -0.4915896096 -0.2653816507 -0.2920050064 0.1138480637
H 2.1524793451 -0.7379611018 -1.3795966854 0.1147560346 -0.2730529900 0.5206306510
H 2.5877641316 -1.8705593101 0.0046666325 -0.1632379603 0.6159750089 -0.4640308056
H 2.5175837258 1.0690544587 0.6710923218 -0.2436814981 0.6236739111 -0.0356200061
H 1.9598161449 -0.3493493048 1.5828684735 -0.3096922068 0.1506490760 0.7269596214
H 0.6684560367 2.0940853318 -1.1365981728 0.3472286239 -0.1198854214 0.1434282590
H -1.9627070125 1.7837610455 -1.3290010896 -0.6010241341 -0.2504416346 0.0933759240
H -3.4152548975 -0.4928307577 -0.7836675469 0.1162388406 0.0044574654 0.9290308844
H -3.5873928737 0.2187863746 0.8708205939 0.0290274289 0.4238962250 0.1287165296
H -2.9229401780 -1.4326548149 0.6999152581 0.2359525763 -1.1972689830 -0.1228048028
H -0.4884243143 -1.2364985754 1.2926977821 0.1127912343 -0.3279953566 0.0549229676
F -4.1562414847 -5.0612924703 0.5936542630 -40.2944377499 -29.0603967297 -46.3623234044
P -2.8828859687 -4.0743862365 0.0958275753 8.5625910529 7.2504527104 -18.7922132606
F -3.5709756069 -4.7024324833 1.4829067069 -7.1483620583 -22.5998668663 41.4904582761
F -4.0007262539 -2.9454490498 0.6372622145 -4.6975311595 3.2488377838 -2.2484545077
F -1.9684740803 -2.9692878612 0.9211680426 13.1615201229 16.4463317715 -7.1667293428
F -2.8319040351 -3.8627919148 1.7659697188 28.7275272532 30.2341016773 33.8848491811
F -1.5125038771 -4.8480105739 0.6857503934 1.7996009488 -5.1470064894 -0.6077650738
26
energy=-34465.6017433317 config_type=IL_pair name=EMIM-PF6 Properties=species:S:1:pos:R:3:forces:R:3
C 2.5909985288 0.8318799018 0.3852943026 0.3120758961 1.6057083225 0.0554443483
C 1.9270970809 -0.2434767102 -0.4605587685 2.4910319614 -1.1920163547 -0.7205185045
N 0.5528652314 -0.3749885846 -0.0476705272 4.0745058716 -1.0183169853 -0.8480978229
C 0.1042555921 -1.2068195883 0.9119812346 -3.8532261028 -1.8819601676 2.6891900498
C -1.2729627165 -1.0086431185 0.9804648956 2.8553243858 -2.8582030281 2.3574777066
N -1.6025853790 -0.0617961136 0.0563567572 -4.8227215695 0.0556710682 1.1102238718
C -2.9674430478 0.4069938171 -0.1604221875 0.2464313001 1.7282181450 0.8084776025
C -0.4762769833 0.3220093759 -0.5704769416 0.2179086808 4.6867926828 -5.2454183699
H 3.6643725359 0.9336666514 0.1462410282 -0.0726642356 -0.1995402016 0.2523659451
H 2.4273264657 0.5389040081 1.4404818477 0.3193777367 0.6145913297 -0.1141199749
H 2.1129158925 1.8119781362 0.1328169358 0.2414138339 -0.5255704721 0.6578449660
H 2.5042331333 -1.1937255508 -0.2874976088 -0.8015008038 0.2520407411 -0.0378413877
H 2.0034483724 -0.0381918104 -1.5464676028 -0.7319363942 0.1843041387 -0.4655592338
H 0.6480879080 -1.9043206640 1.5325896043 0.8012409582 -0.1553786913 -0.0478879706
H -1.9195478914 -1.5331373059 1.6582290413 -0.9583580414 -0.0756900786 0.2684248073
H -2.9139238074 1.2772561008 -0.8566225568 -0.3376921683 -0.5758179020 0.0600372027
H -3.3628542957 0.7948304963 0.8222791604 -0.1765645785 -0.4002746697 -0.6678815270
H -3.5758050282 -0.4196338392 -0.5340098909 -0.7582888478 -0.1907929922 -0.3279244416
H -0.4442015919 1.0672147981 -1.3561797025 0.4011632295 0.2565732027 0.0159680986
F -0.2650802554 1.7026979104 -3.4108142133 -0.5920631507 4.2180703664 -1.7976478877
P -0.9842533216 0.1954766455 -3.5605484404 30.5825874582 1.4524653621 7.2367729857
F -2.3587414079 0.8779630206 -4.1925301158 6.4218840802 71.9248903273 -33.2917214362
F 0.6020016036 -0.0824988611 -3.0858415923 4.7464542150 -0.3857271074 1.1302706349
F -2.5298128991 0.1294645720 -2.9623089888 -21.0127142393 6.1465214317 65.0046976608
F -2.5135601186 -0.3012750942 -3.9672398116 -18.8334846623 -79.7474775546 -32.7358168343
F -0.5317292414 -1.2670300222 -4.1860516728 -0.7565238041 -3.9161803676 -5.3481037144
26
energy=-34486.1315346096 config_type=IL_pair name=EMIM-PF6 Properties=species:S:1:pos:R:3:forces:R:3
C -2.7597156050 0.0389868688 -0.5214079630 -4.5464230341 0.0968392589 -2.7049715546
C -1.8644710654 -0.5081295061 0.5242620973 0.4623899407 -2.7975922072 2.6580852809
N -0.4985232817 -0.0635124337 0.4847088843 -4.6359074970 -1.0269977378 0.7810947267
C 0.0252731647 0.9928861256 1.0934782160 2.8945153465 5.4559968577 2.4971828301
C 1.3700484686 1.0645842309 0.7967395732 -0.8064698876 2.0431116754 1.9087641169
N 1.6577617262 0.0093230651 -0.0207673610 4.7773235882 1.7278248849 0.3090209204
C 2.9692527119 -0.3146173760 -0.5875535953 1.0943656728 1.1035447830 1.0073235469
C 0.5161020631 -0.6455345097 -0.1871953515 -1.3727317095 -7.5406194661 -5.1790445184
H -2.3869248592 0.8547778060 -1.1376947402 0.6231383994 0.5128501977 0.1790838365
H -3.0690759364 -0.7574444446 -1.2614616421 0.5445100797 0.6161814427 0.6590416716
H -3.7513826126 0.3698312666 -0.0934152775 1.0236061499 -0.0568086642 -0.2206099002
H -1.8321172205 -1.6311289150 0.4098874548 0.0260601299 0.6594772181 0.0886168670
H -2.2563386793 -0.3552328418 1.5714495899 0.1250846807 0.2981506961 -0.7369106645
H -0.4848441108 1.7011376869 1.7240163998 -0.6415233566 0.0083582309 0.4462660698
H 2.0512566190 1.8245038836 1.1560490169 0.6158472637 0.0910000193 -0.0942264901
H 3.1370407051 -1.4087071558 -0.6029264681 -0.0419676394 0.1205062401 -0.3043311193
H 3.0756288103 0.1809537124 -1.5669040199 0.1433754528 -0.4574227255 -0.5853143656
H 3.7239698243 0.1834907390 0.0882888307 -0.3743987290 -0.6609340147 -0.5311088833
H 0.3770592776 -1.5361682023 -0.7785696042 0.1709149192 -0.1987158191 -0.1557479370
F 0.4584199396 4.9051104561 1.2548006416 2.8833819108 -0.7149467960 1.8464148880
P -0.8670610641 4.5988282333 0.3106867866 9.2812556269 -0.9047613049 -21.1290943288
F -2.5126771976 4.3865918764 0.0284408252 -5.0970401597 -1.3170024999 -8.9232202456
F -1.3697235398 5.4157871720 1.6880390786 9.5771102635 33.5442082974 14.6641391967
F -1.9154183445 4.4023162776 1.5907889343 -17.4691901526 -30.6662210487 15.3004193970
F -0.2091153632 3.1307666012 -0.1119634456 0.6989762134 -4.8202743881 0.5653356539
F -1.1173538717 6.2085256117 -0.0389799147 0.0522278748 4.8764698494 -2.3333565516
26
energy=-34481.5877590630 config_type=IL_pair name=EMIM-PF6 Properties=species:S:1:pos:R:3:forces:R:3
C -2.6130904138 0.5451216145 -0.5739338440 -1.4522759912 -0.1834585872 -1.9534885207
C -1.8721308145 0.3500243892 0.7254040157 0.0768243346 0.0293804602 0.9499885171
N -0.5323208856 -0.1593592547 0.4112906227 -3.0456686628 0.2737610659 1.5067719126
C -0.1523023506 -1.4445454072 0.2950622550 2.3717840343 -4.2827981227 -0.6229401943
C 1.2088212781 -1.4560351361 -0.0120450111 -2.4286608169 -4.2480974075 0.4040415429
N 1.6125220193 -0.1732549571 -0.0725511814 3.1523908168 0.5623288843 -0.7989238901
C 2.9294629328 0.3661401402 -0.3565861438 1.3866955089 0.7787673853 -1.0463996414
C 0.5447560335 0.6029734465 0.1866101935 -0.0069238069 5.7630027754 -0.4434984303
H -3.3412290358 1.3675580090 -0.4264185791 0.1589297564 -0.1730227814 -0.5243813445
H -3.1806218583 -0.3790553365 -0.8662429547 0.5169350232 0.7213669034 0.0622249316
H -1.8558056719 0.7845072584 -1.3709936284 -0.9760854438 0.0719768719 0.5082764709
H -1.7973249534 1.3420705480 1.2164746981 0.3502517377 -0.3581205934 0.3538196861
H -2.3532253644 -0.3972726359 1.3820929558 -0.1663200036 0.2341745433 0.1994484207
H -0.7978083338 -2.3033370708 0.4201643453 -0.4504811661 -0.2350844609 0.1239453455
H 1.8456433856 -2.3201688242 -0.1761662408 0.3070203534 -0.1105907718 -0.0626168513
H 2.9559155414 0.9181162275 -1.3408508001 -0.1154585076 -0.4583645293 0.5754518955
H 3.6999825234 -0.4231248197 -0.3614876496 -0.1847993851 -0.1581571876 -0.0155865843
H 3.1679122423 1.0960439003 0.4226211775 0.2520766581 0.5559643927 0.3334652924
H 0.5308437255 1.6835979086 0.2154353094 0.5667122345 2.0227156086 0.9659849615
F 0.4751422850 4.8651738758 0.9352211568 -42.5111703773 11.5307841914 34.7247280125
P 1.9870467422 4.3075878783 1.3929684017 15.7865373729 -5.9883277463 16.8220383247
F 2.5112001384 5.7932126760 0.8645436904 4.0161245486 4.6620789728 1.1856547882
F 2.1423200277 3.3999064428 0.0090910793 0.9043757270 -6.1587934204 -10.7978253205
F 0.7604945940 3.2234529769 1.0756288033 -6.5731218194 -13.4961728012 3.2017119353
F 3.4977777537 3.8088270092 0.8721972539 10.2647434337 0.5918906486 3.9104622144
F 1.1459682638 4.9356727039 0.0906993000 17.7779454859 8.0345381722 -49.5552992364
26
energy=-34470.8111147650 config_type=IL_pair name=EMIM-PF6 Properties=species:S:1:pos:R:3:forces:R:3
C 2.5741242875 -0.7542700140 0.5417965688 1.1699387395 0.3486545199 1.3848519296
C 1.9233884018 -0.1110534051 -0.6795480886 -0.8769531159 -1.1063237695 -1.3308272151
N 0.5384236366 0.2112695963 -0.3238227039 6.6640104365 1.6550390991 -1.7089593723
C 0.1968691550 1.4064070051 0.2176204258 -2.5444997596 2.9535012135 1.6485081429
C -1.1700126270 1.3250040514 0.4062197880 2.5506653707 5.4005304237 1.8089709214
N -1.6069807435 0.1339156126 -0.0073004238 -6.3158094917 -0.5500077636 1.1589857760
C -2.9815178079 -0.3341095143 0.0253081884 -0.7629138771 -0.3538279220 -2.2646025048
C -0.5570126247 -0.5579964002 -0.4589920239 0.8185852935 -8.8356393576 -3.5493436383
H 2.9964012491 -1.7080699047 0.2068257331 0.3977318749 -0.2202180806 0.7320530613
H 3.3435258762 -0.0604383463 0.9718657653 -0.1203862846 -0.8647958107 -0.4774892209
H 1.8293643770 -0.8713355316 1.3724923924 0.3727233842 -0.5919468233 -0.1283556626
H 2.4816344773 0.7633587265 -1.0155682908 0.0130240187 0.8529266764 -0.0234459550
H 1.9202674978 -0.8138127682 -1.5632089008 -0.1334269500 0.3024542095 0.6885263814
H 0.8701939429 2.2401039657 0.4474598530 0.0368707423 -0.3301834069 -0.1590692526
H -1.7647499153 2.1194981991 0.8257950321 -0.7914141228 0.1702966373 0.1921319140
H -3.5804714553 0.3688913825 -0.6219796722 -0.2577582600 -0.3003338542 0.9290697029
H -3.0544261546 -1.3200213147 -0.5008361493 0.3106945294 0.4231620165 0.4355968787
H -3.3952062344 -0.4617836937 1.0275933913 -0.3933630303 0.2697319187 0.6861045942
H -0.5638153386 -1.5755576464 -0.8717208848 -0.0996947756 0.7094936348 0.2644693275
F 1.6941116710 -3.1907582208 4.7380087169 -3.8491833006 7.5898882182 38.9137943487
P 2.7113381926 -2.3615226990 3.7073598889 -7.2046272993 25.5909518425 -6.9269760794
F 1.6201952693 -3.6179811301 3.6106762954 -12.0592819684 -21.5018484833 -32.7115917053
F 4.0341516950 -1.8596031402 4.5625042657 1.9581195009 6.5383924871 8.7749732217
F 4.2074056339 -2.9619098073 3.2464853884 46.6259849312 29.5177811568 -27.9790918458
F 1.5343380293 -1.3040006015 3.2412151426 -3.7549299295 3.8076321960 0.9156538883
F 3.6122918448 -3.7592453235 3.6103291926 -21.7632027380 -51.4716358687 18.7326191208
26
energy=-34447.7736017546 config_type=IL_pair name=EMIM-PF6 Properties=species:S:1:pos:R:3:forces:R:3
C -2.6569087207 -0.1054659634 0.7624392356 12.4769030586 29.9950301070 6.2304599198
C -1.9192144175 0.3945154359 -0.4605509403 -0.8314866567 1.6881926666 0.7075226399
N -0.5140682455 0.0052122184 -0.4326760616 -2.9424033823 1.9329949202 -2.1737620217
C -0.0151380592 -1.1439806483 -0.9537030399 6.7542850862 0.4706072762 -4.3268835925
C 1.3557783516 -1.1160935099 -0.7123855390 -1.8702672272 -4.0989949157 -2.3289921363
N 1.6152756268 0.0338370295 -0.0655800363 5.5536967889 1.6240381036 2.0662868086
C 2.9187975681 0.5248286556 0.4077937062 -0.2753462049 0.3639393466 1.4220230404
C 0.4865917511 0.7252113529 0.1108940358 -1.4350931998 4.7840784504 2.5364633886
H -1.9269270669 -0.6964757427 1.3628176669 2.8586873768 1.1376186934 2.7990928441
H -2.9558428417 0.7350640851 1.4404386782 1.6634148252 2.0121600721 1.1263394528
H -3.4900936976 -0.7858843394 0.5262237262 -48.9691387711 57.4978896401 -11.0393422003
H -1.9475699942 1.5068443412 -0.4225859561 -0.1647727376 -0.3885667916 -0.4864080880
H -2.4164429677 0.0142609395 -1.3733899729 0.5351146759 -0.0833197670 -0.9073827640
H -0.5929776858 -1.9087114835 -1.4508686641 1.8016228824 0.8498452741 -4.3863521190
H 2.0724056676 -1.8739132667 -0.9918306703 0.5406360045 0.0844345005 -0.0661253288
H 3.7336367590 -0.0762477504 -0.0225485679 0.0870390390 0.1382105633 -0.1179907471
H 2.9591789162 0.4827334264 1.5352625458 0.2272823573 -0.1797205100 -0.5913486024
H 2.9714703402 1.6016395334 0.1537363906 0.4805242325 -0.0765362849 -0.2650638326
H 0.3220487162 1.6826256864 0.5865134631 0.3879753604 0.2018693917 0.0858763876
F -3.1375249538 -1.3033853176 0.5970726232 31.1357938672 -76.1858777803 6.0468200062
P -2.6772836819 -2.7887463893 -0.0333586072 18.2109572750 -3.9710645710 -17.3083744545
F -1.7195069683 -3.2481271220 1.2754687095 3.5347076490 16.6981586030 20.0005737992
F -1.9921670537 -4.2878251049 0.2465667384 -3.8593305104 -18.7104573789 -17.2823601920
F -3.8928435130 -2.8297454874 1.0895535290 2.4442631333 58.1500006213 60.4674849025
F -4.0585300887 -3.5945074404 0.4682452819 -24.9993512681 -70.4385773048 -46.3260127130
F -1.1856471893 -2.1360374990 -0.3458552221 -3.3490381599 -3.4905125873 4.1148498958
26
energy=-34461.6816122351 config_type=IL_pair name=EMIM-PF6 Properties=species:S:1:pos:R:3:forces:R:3
C -2.6598991169 0.5674394117 0.4121696901 -2.6727278682 2.9844663324 -0.7502064193
C -1.8859977790 0.1859597970 -0.8028669069 -1.4369784244 0.7310371395 -2.2342193971
N -0.5143149450 -0.1926932444 -0.5133272954 -3.2877636728 0.4577294208 -1.1641640088
C -0.1042700697 -1.4460880337 -0.2315916083 2.3225358126 -3.9593646675 1.1233621607
C 1.2590035675 -1.4042382519 -0.0154020195 -1.7700052351 -3.9994055478 0.4423739354
N 1.6222050919 -0.1158152069 -0.1764496450 5.5516674320 0.8934283586 0.8486439325
C 2.9818922476 0.4283806563 -0.0468313258 0.4472584318 0.8824437388 -0.2585161136
C 0.5540993498 0.6442705195 -0.4815562038 -0.7977155709 5.4032604189 -1.0016865217
H -2.1937421590 0.2554360979 1.3638492202 -0.1456535886 -0.6070965832 -0.8254630772
H -2.7950239154 1.6798626174 0.4769979887 0.2622541825 -0.7640420724 -0.1488863074
H -3.7109604111 0.1626406280 0.3544228549 1.1067704987 0.1042114765 0.3041704297
H -2.3697551499 -0.6824275473 -1.2875280514 0.1759439652 -0.0320465917 -0.2465755628
H -1.9189177069 1.0593134283 -1.5141125781 0.5743160932 -0.8348921738 -0.0078492961
H -0.6822331696 -2.3622866111 -0.1694425692 -0.7700573893 0.1241171284 -0.1588472179
H 1.9146316662 -2.2510029380 0.2369556239 0.0879697548 0.5370905740 -0.0818585692
H 3.2211182864 0.9762642366 -0.9900137239 0.1628268736 -0.1149094688 0.3249387380
H 3.0350226946 1.1530488254 0.7990945663 0.0484905286 -0.1826778409 -0.1383823291
H 3.7131148644 -0.3783251683 0.1070204239 -0.0312980439 -0.1479799587 0.0329743517
H 0.5340266540 1.7202607836 -0.6690313990 0.0737413240 -0.3165559841 0.0576186548
F -1.4249255365 -0.9970466923 3.8895525969 27.3743764685 -0.1969556962 -8.2897155678
P -2.6340490252 -0.3866963638 2.9386240338 12.8684648268 13.9094598706 -17.5744902987
F -3.8624569114 -1.5182797582 2.7422862461 -30.1353799004 -7.2377791483 -47.0994440495
F -3.3530235116 -1.5855133446 3.8370092047 -35.6138668663 -54.5064255751 -8.0130805397
F -2.7571036269 -1.0597878484 4.4614670478 27.1869868977 42.2657039283 81.3291502606
F -1.7844531439 1.0529376368 3.1473872014 -0.3740500296 1.8577308774 1.5066946880
F -4.0712789998 0.4544038128 2.8688751509 -1.2088169799 2.7546035392 2.0322076293
26
energy=-34442.9906029717 config_type=IL_pair name=EMIM-PF6 Properties=species:S:1:pos:R:3:forces:R:3
C -2.6267137247 0.2941303955 -0.6451679363 -1.4919938374 1.5775016540 -0.0585856254
C -1.9350858734 -0.1484973779 0.6385218517 -0.7760747375 1.0455010298 0.5001545426
N -0.5315466910 -0.3339620439 0.3243037940 -0.8538549707 1.9167970466 3.5044525927
C 0.0603935131 -1.4620479708 -0.1012382527 -11.5948341436 17.9747412445 0.9964894432
C 1.4107911880 -1.2000619343 -0.2806387781 5.9418757167 7.4205916559 5.6828877323
N 1.6091460116 0.1071381640 0.0471156892 3.0598444097 1.8561037897 0.6521597546
C 2.8613461722 0.8363938985 0.0164788260 1.7148310616 1.2282510381 -0.3925786914
C 0.4283840838 0.6093406322 0.4080833656 -1.7489242967 6.4986271297 2.3881269886
H -2.2149442126 -0.2182388449 -1.5299752425 -0.0968192533 0.1406529644 0.1201236608
H -3.7087127380 0.0853577907 -0.5358024736 0.1371436508 0.1691251906 -0.4495401793
H -2.4842830582 1.4084359910 -0.6898069289 -0.1839445973 -0.9406607272 -0.6909741122
H -2.4190941962 -1.0479308312 1.0481283654 0.4396809509 -0.4905721211 0.0371885204
H -1.9986539296 0.6498296539 1.4065689549 -0.2764531670 -0.1481358317 -0.0183967869
H -0.4600124725 -2.4107033278 -0.2686764963 -13.2682976073 7.6003190058 -6.1724359704
H 2.1386713811 -1.8996271913 -0.6120105218 9.3840184862 3.1429292940 3.0764188123
H 2.9991483428 1.3600148713 -0.9694904962 0.2844324748 -0.4059763233 0.4593761632
H 2.8938013605 1.6215680124 0.8009179412 -0.1659614926 -0.2029277642 -0.0659153678
H 3.7021357374 0.1147611858 0.2199578701 -0.5241319932 0.5028231285 -0.4546711492
H 0.2752291058 1.6340989270 0.7227304682 0.0024995187 0.3057324022 0.0378622310
F -0.3726395692 -5.0644609814 -0.8109392463 -2.8352151712 -2.4235644877 2.1659941785
P 0.8169664516 -3.9001336268 -0.9113445271 -17.0912071575 -8.1477620981 -25.6987216093
F 2.4520934916 -4.1464924568 -0.9904872765 26.6748161379 -14.8631681956 -61.1546585020
F 0.9250204343 -2.2452171655 -0.9710128915 4.9818432430 -8.1951936565 -29.6367567586
F 2.1047383651 -3.8405007112 0.1351309360 45.7229620342 61.2298462404 35.2985276356
F 0.1706219814 -2.8880541025 0.2683000238 2.4284861312 -26.1439607465 24.1775259740
F 1.4156210535 -4.4601136758 0.5597386891 -49.8595624183 -50.6488071565 45.6783115858
26
energy=-34446.7292971153 config_type=IL_pair name=EMIM-PF6 Properties=species:S:1:pos:R:3:forces:R:3
C -2.6955206701 0.4227812154 0.7723577318 -2.2205026332 1.3621652791 1.4201559207
C -1.9211654134 -0.1529785194 -0.3854437005 0.0665002460 -1.0229317817 -1.4283362194
N -0.5260002502 -0.3292655082 -0.0944976711 -5.3446924752 -1.7914612077 -0.7098605792
C 0.0705299330 -1.4236062578 0.4317259562 2.7014152081 -3.8975566960 2.0033642652
C 1.4215313708 -1.1750392095 0.5480281177 -2.3224843257 -4.0445083736 1.1559231610
N 1.5958338672 0.0726663227 0.0836187951 7.0334683718 1.5941624888 0.7406349208
C 2.8833763028 0.7470014530 0.0219420087 1.2924779356 0.2714733372 0.4172364772
C 0.4232964046 0.6047466708 -0.3122379581 -0.7217653264 7.1800112379 -3.5690919075
H -2.0751663791 0.6500061009 1.6550513398 0.1687479793 -0.0367453590 -0.2801993898
H -3.4737523331 -0.2909687384 1.0950103580 -0.0122191335 0.2563317359 0.0582033926
H -3.1945453223 1.3641656366 0.4459737286 0.0794727653 -0.4153628857 0.4479684468
H -2.3471889829 -1.1417179321 -0.6647779318 0.0158592424 0.1127967334 0.0080687271
H -2.0024419957 0.5120880958 -1.2745934595 -0.0561650370 0.1393315080 -0.1804565128
H -0.4081265766 -2.3524581729 0.7221661596 -0.5931932485 -0.0581360677 -0.0510448735
H 2.1626030688 -1.8644169377 0.9374030886 0.5351528389 0.1818233699 0.0158219983
H 3.4888955699 0.4228853537 -0.8654539497 -0.1899507959 0.4380726336 0.0053623960
H 2.7745837993 1.8550337012 0.0508189013 -0.1713080351 -0.3746540179 -0.4024960497
H 3.5017798900 0.4875572126 0.9103121346 -0.1683501014 -0.1117168884 -0.0838789495
H 0.3214777170 1.5915195134 -0.7174646018 -0.3016528205 0.2936944533 -0.0011653153
F -2.1073338620 1.5805836138 -3.3786037964 -0.7896896286 7.4337365052 3.0776450627
P -1.0197662717 0.7258540879 -4.3088336999 -14.2514159811 26.0347365022 -18.0654601077
F 0.5979446060 0.7254066833 -3.9479471771 31.9870756463 23.7509177489 -10.8610706605
F -1.2363297844 -0.9265583248 -4.1609766619 7.2804221062 -53.1571219850 -57.9702897243
F -1.0433593060 -0.5280417112 -3.1842255342 -51.5615285196 -14.6490145707 81.9441522423
F 0.0165792765 -0.2784001568 -3.4772950706 59.5008997151 -3.0099823217 2.4546040499
F -2.4053452917 -0.1465636158 -3.9732957067 -31.9467818208 13.5224091031 -0.1391485497
26
energy=-34442.4600831072 config_type=IL_pair name=EMIM-PF6 Properties=species:S:1:pos:R:3:forces:R:3
C -2.6360745979 0.4566497298 0.0726035404 1.6152203795 1.0233821090 0.5874452019
C -1.8092969820 -0.4469527485 -0.8310743718 5.7356578136 31.9476265150 3.5532206841
N -0.4909658964 -0.4931654861 -0.2248798203 -4.3419049659 0.9216601259 -3.2175758598
C -0.0001063072 -1.3438918827 0.6937305618 2.5280404837 -2.3895526555 3.4927884854
C 1.3084744790 -0.9597760572 0.9380382460 -1.3170503680 -2.8290599258 2.0702606793
N 1.5707773414 0.1109909915 0.1609044529 3.7246894362 1.2244553960 0.3622657327
C 2.8092803494 0.8770960693 0.0574661667 0.4352517900 0.3502443192 -0.3362741512
C 0.4726266211 0.4097625933 -0.5604418141 -0.6483203336 3.6787209147 -3.3889584144
H -2.4784460696 0.0682294853 1.1040188692 -0.7186983631 0.4470861838 -0.1949672482
H -3.6802516149 0.4499581443 -0.2436863798 -0.5952752540 0.4299845098 0.2589395506
H -2.1788524551 1.4797238644 0.0298104803 -0.9303527243 0.2283421472 0.5152208150
H -1.7665199636 -0.0154797514 -1.8351599136 0.5674500679 0.4123934532 -0.0922145172
H -2.2827687240 -1.4466923481 -0.8798752321 -115.6719193530 151.3134289856 54.2474833472
H -0.5477847043 -2.1667247153 1.1418380519 -0.1904948274 -0.1694652870 -0.0095294919
H 2.0118196480 -1.4122575213 1.6171330667 0.6137222528 -0.1103797003 0.3429119756
H 2.5844601654 1.9572971884 0.1912636684 0.2263148614 -0.1236681373 0.3674334866
H 3.2245814557 0.7756895514 -0.9638042304 0.2544622906 -0.1514031526 -0.0092807378
H 3.5060642483 0.4771656152 0.8066876428 0.3020556182 0.3081690551 0.0660788813
H 0.3829830068 1.2223772781 -1.2745729852 -0.0440936468 -0.0882024928 0.0318452465
F -3.3656513740 -2.5222157273 -0.8174531204 -25.7106139894 25.5484740244 -8.2665526014
P -2.0801161547 -3.5049153564 -1.2100481662 19.6662269235 -13.9681210681 -11.0007089973
F -3.5328556680 -3.9393862160 -1.9112014752 -4.9993857892 -6.2592431239 -7.7700942129
F -0.8761056375 -4.4635015171 -0.6018886679 0.6669977485 -7.5667003428 4.9047562965
F -2.0133503852 -1.8342537942 -1.0115068755 122.7248232942 -165.9479676727 -59.0705298286
F -3.3103138008 -3.4681442848 -0.1004748203 -8.7020070535 -22.2266868462 27.8760004506
F -0.5454543179 -2.9524560275 -1.5666108023 4.8252754296 4.0103105310 -5.3254682246
26
energy=-34469.9759225157 config_type=IL_pair name=EMIM-PF6 Properties=species:S:1:pos:R:3:forces:R:3
C -2.6641622671 0.6509282002 0.0156219000 -1.4181333103 0.9734869962 0.7232012826
C -1.9046439061 -0.6179399785 0.3863058698 -0.9757353476 -1.1222619092 0.2129032716
N -0.5344514130 -0.4773947606 -0.0596534431 -2.3437336582 -1.2461522255 0.8666365656
C 0.0283193798 -0.8113833593 -1.2357032484 3.7946696535 -2.3354181306 -2.2206464944
C 1.3848756163 -0.4827316078 -1.1972194806 -1.7061411230 -1.8721555888 -3.7441707650
N 1.6145704300 0.0513749494 0.0219413155 3.2425988896 1.1408647149 0.2962311684
C 2.8834557753 0.5406719549 0.5189554959 0.6532853222 1.0554269643 1.8106839430
C 0.4477297164 0.0458844138 0.6913769344 -0.2564232516 2.7963014363 7.0413777306
H -2.0456311250 1.5206635403 0.3394646690 -0.6763380964 -0.2604323360 -0.3338791836
H -2.8278003449 0.6106611095 -1.0782221213 0.6824862423 0.1716166333 -0.2786477641
H -3.6513620752 0.6377970567 0.5234528843 0.3522814583 0.3207786663 -0.0382541188
H -1.9024973604 -0.7769951720 1.4774367495 0.0767642801 -0.0651078419 0.2112831598
H -2.3753826599 -1.5048481144 -0.0959838762 0.2245314251 0.1700243061 0.1283719946
H -0.4950600793 -1.2627582964 -2.0732278487 1.1444818588 -1.6310500204 1.5653110851
H 2.1243434044 -0.6259111235 -1.9932984845 -0.0252474696 0.0553949918 0.2508537350
H 3.3657642241 1.1944425076 -0.2249520814 0.3327577228 -0.2362170015 -0.2500875996
H 2.6838485562 1.1800164377 1.4216548265 0.0998177470 -0.4425002221 -0.5353915386
H 3.5400121442 -0.2918160056 0.8540269933 0.2003571567 0.1330133012 -0.3210659421
H 0.3280719842 0.4193382478 1.7080229461 -0.0042412119 0.0777161250 -0.1629424632
F -2.3312514023 0.0665076845 -4.1375931408 -46.8545173540 19.6600133435 26.3820253112
P -0.9114383794 -0.6431998328 -3.6115011284 13.9029004157 -12.3348572804 4.3293189289
F -1.7238086780 -0.1596283462 -2.2443022959 -5.1843286351 3.4055811019 4.9652963209
F -1.8176802064 -0.8013441683 -5.0166430947 25.3419683100 -16.8003341694 -50.4209936044
F -1.4320643057 0.8370597249 -4.1697082118 16.2379631467 30.3813050783 -5.9951676200
F -2.2776616027 -1.5731250674 -3.8780791825 -11.3685675583 -19.8908013690 18.1636158602
F 0.6622863792 -1.1061912692 -3.9715413792 4.5242299634 -2.0971260112 -2.6471201836
26
energy=-34488.4481290958 config_type=IL_pair name=EMIM-PF6 Properties=species:S:1:pos:R:3:forces:R:3
C 2.6392741477 0.6663216832 -0.4202653331 1.5604834999 -0.8005978537 -0.2273607999
C 1.8674606132 0.0936751347 0.7680429746 2.1142987125 -0.5460651847 1.1566647772
N 0.5211066232 -0.2850829724 0.3931939609 3.8730087848 0.6587037760 1.5442363938
C 0.0962619961 -1.4774106533 -0.0680831581 -2.6522952058 -3.1878599529 -1.5662746411
C -1.2616311853 -1.3565628626 -0.2853373571 1.5552585470 -3.7195408768 -0.9567722184
N -1.6089586756 -0.1020495541 0.0503146252 -4.3308988966 2.2262395987 -0.0497922427
C -2.9451956062 0.5017943321 -0.0084318436 -1.5140030279 -0.6253278147 -0.1319712011
C -0.5173453485 0.5818794384 0.4746955880 0.1041814950 4.7272375525 1.8671293850
H 2.6567541640 -0.1360059880 -1.1942668166 -0.0558539083 0.8305686792 -0.0406290595
H 3.6934055156 0.7907543746 -0.0565017739 -0.6935994969 0.4422569088 -0.6014179846
H 2.1814712597 1.5972527204 -0.7673481584 0.0988636477 0.2662606098 -0.4197674462
H 2.4620311092 -0.7914117211 1.1135941213 -0.7237897659 0.0916021292 -0.0532868367
H 1.8968493281 0.8147549465 1.6107364643 -0.5902879229 -0.0061617039 -0.0715343679
H 0.6772575529 -2.3610770411 -0.2410949557 0.8970483688 -0.5004503059 0.0182143187
H -1.9720149301 -2.0852705383 -0.6521963712 -0.2940224602 -0.2992829047 -0.1520228539
H -3.6945550586 -0.2725327244 0.3105959004 0.3153251068 0.4500988449 -0.4497736537
H -3.1881077532 0.8654225944 -1.0391545957 0.0196529534 -0.1110403902 0.3726157983
H -3.0341517657 1.3355523533 0.7055367147 0.3062885355 0.1844129831 -0.0158980346
H -0.4699119865 1.6199964777 0.8155505691 -0.0640402950 0.3586481582 -0.5011256690
F -0.5218725195 3.4741218584 0.0511097759 -3.2365951890 -3.1219390842 2.9634909648
P 0.4364733259 4.6169208469 -0.6507624190 3.2145730661 -6.5087204861 4.8454142219
F -0.7839615574 5.0331926485 -1.6928645356 -12.2356526690 -14.3537581259 -16.5798761137
F 2.0069136432 4.9643638341 -0.2372408672 8.1521794345 -0.0455367865 17.5006704697
F 0.5840589584 3.3949951268 -1.7724943538 -0.3052243707 -4.3182253255 -0.8350352300
F -0.3398716034 6.0577977666 -0.9108351600 4.0712091408 22.9008143787 11.2529773270
F 1.6760213318 4.9789371596 -1.6968331323 0.4030971835 4.9987241018 -18.8881047756
26
energy=-34438.0626753732 config_type=IL_pair name=EMIM-PF6 Properties=species:S:1:pos:R:3:forces:R:3
C -2.7097495570 0.3671102717 -0.3780522218 4.3664912372 -7.3326102904 -13.6522613688
C -1.8089102040 -0.8694187253 -0.3001421682 -1.6353729965 -0.6713475665 -2.2740424161
N -0.4766141102 -0.4912920734 0.1690662481 -3.0454858092 -1.7535865986 -0.8106673007
C -0.0321789671 -0.4389091627 1.4402295407 5.1239303917 -0.3677497060 2.2053651788
C 1.3012778951 -0.0235444320 1.3517036094 -1.7507707728 -0.7837675258 4.8213834234
N 1.6178459642 0.1601139568 0.0452870625 3.9587218257 1.4562841922 -0.9363440920
C 2.9159835687 0.5932499094 -0.4770229998 -0.2594626605 2.4879076262 -0.2662403342
C 0.5148863214 -0.1310861599 -0.6729715258 -0.6058922912 0.1865405150 -5.4756736601
H -3.7548967601 0.1025669592 -0.1199801267 -0.0328334409 -1.5251972060 -1.7412896473
H -2.3167776693 1.1263480232 0.3282582069 7.9644228376 -0.9308786116 -5.4523603925
H -2.7076732852 0.7932688279 -1.4009091552 -0.2089647086 -0.7849256081 -0.3769164387
H -1.7361665273 -1.2813410587 -1.3281415403 0.5874828677 -0.7966584074 0.4199974770
H -2.3012187616 -1.5767977821 0.3781813757 0.4492095740 -0.6670753755 0.1709714693
H -0.5973193990 -0.6716528998 2.3344959599 -0.1823779982 -0.2637427100 -0.2945861015
H 1.9674187176 0.1249917804 2.1983134718 0.4151761170 0.0421377341 -0.2025936971
H 2.7672601792 1.1356797731 -1.4536046384 0.1051875831 -0.8717387827 0.4019646264
H 3.6134745089 -0.2441564219 -0.5778758581 0.5868720808 -0.2642469008 -0.0887852388
H 3.2965810391 1.4060754933 0.2070435511 0.2062212541 -0.9942039480 -0.2444541657
H 0.4467770468 -0.0812062793 -1.7438787919 -0.1113854499 -0.0291085078 -0.5170619880
F -2.7142523778 -0.5706226710 3.4574396761 1.7497627340 11.9514524798 104.3556037049
P -3.2935500470 0.5566310662 2.3827282687 -5.8303910993 29.4379926787 -0.0099580423
F -3.0307250608 -1.0814833012 2.5999553008 28.5851703770 -58.4676627197 -4.8776824326
F -1.7603604614 -0.0035491716 2.6954293313 35.0861545425 21.0246855349 -23.6582937856
F -4.8253852655 0.1532957080 1.8918640405 -14.8386134568 11.8714385717 -0.5195536721
F -3.7518852495 -0.9609105596 1.8438602335 -49.2687098746 -15.3589785223 -68.8591674669
F -3.1570734720 1.2711141489 0.8672196277 -11.4191132360 13.4163443376 17.8826343196
26
energy=-34495.1651366288 config_type=IL_pair name=EMIM-PF6 Properties=species:S:1:pos:R:3:forces:R:3
C -2.5289316685 0.4734914809 0.7322237791 0.4418899757 0.2032698052 1.2507836587
C -1.9193448421 0.2564823547 -0.6541001047 -1.5415100697 -0.9364017808 -0.1007899593
N -0.5524769117 -0.1990898220 -0.3981143703 -4.5600131006 0.8406869208 -1.9930812886
C -0.1196381878 -1.4649021779 -0.2444393101 2.1956047394 -3.3246397784 0.5627225148
C 1.2406106164 -1.3567368726 -0.0260153791 -1.6284351867 -4.6578527714 0.0277724520
N 1.5854991854 -0.0503194404 -0.0534295352 3.2716143330 0.4877559445 0.7718232164
C 2.9044124649 0.4991969997 0.1295580127 1.3775030149 0.2904391735 0.1919455150
C 0.4693470272 0.6695077909 -0.2850045612 -0.2316670194 5.8047875398 -0.3200836990
H -2.1067732671 1.4164354197 1.1435519656 -0.6557647546 -0.3550183832 0.1254826726
H -3.6174552705 0.4369104181 0.7227745121 -0.4479903873 0.4643848692 0.0317016169
H -2.1663016927 -0.3682576317 1.3591089404 -0.3179843732 0.3915014067 0.0061160303
H -1.9569186027 1.1524029365 -1.2793046318 0.3614582543 0.4844851895 -0.2333440670
H -2.5216582346 -0.5223164115 -1.1638115634 0.4648043414 -0.1740779389 -0.1835705716
H -0.7318193306 -2.3730931715 -0.2871037149 -0.1063946786 0.3069064306 -0.0468061805
H 1.8907068530 -2.2063836760 0.1367450501 0.7235934602 0.0061166535 0.1340291841
H 3.3668259804 0.0304657390 1.0185433830 0.2632027731 0.0599459945 -0.0050042312
H 2.8443648403 1.5933819068 0.2848396463 -0.0012256378 -0.1610322711 -0.1134543343
H 3.4968765597 0.2635006426 -0.7733873949 0.5111625408 0.2346701200 0.0502420910
H 0.4226744811 1.7493235146 -0.3626347236 -0.1060931713 0.0498316013 -0.0412876197
F 1.5769252641 1.3124360514 5.9171835245 0.2278362140 -0.3898117645 1.7405390660
P 1.6270875123 1.3264940964 4.2545818898 4.8663454213 3.5670987665 2.6438740744
F 3.1646620683 0.7853712076 4.5707328340 2.4558322692 -0.7219967725 -0.9351048053
F 0.1287849252 0.5955772176 4.2250971188 -15.7351947108 -0.7994777459 1.6956272061
F 0.2660385246 2.2366159608 4.5586112363 -2.5624754211 9.8715095872 0.3320727526
F 2.3457557615 2.7182617599 3.6415876357 0.4153487351 1.1050736767 -0.7293181906
F 1.2754824748 -0.2742901196 3.8733678200 10.3188721541 -12.6479334036 -4.8647915120
26
energy=-34472.3298773981 config_type=IL_pair name=EMIM-PF6 Properties=species:S:1:pos:R:3:forces:R:3
C -2.5811751324 -0.3509239993 0.5869092898 24.6738361257 -14.6554713878 -1.0219148335
C -1.7596911339 0.9264805955 0.6977251258 5.4056617364 -7.3570181913 -3.0019116304
N -0.4956894389 0.6237566046 0.0202686796 0.2343536748 -0.6536681597 -0.0582066247
C -0.2403035365 0.8174660781 -1.2997739265 2.0221887804 -0.2357060841 -2.2841236554
C 1.0627706358 0.3921665170 -1.4723422704 -1.2872157063 1.5124916046 -5.0271905936
N 1.5790564398 -0.0420925225 -0.3070639335 2.8029489581 -0.3131950697 0.1451535128
C 2.8989731637 -0.5720360289 -0.0217738732 0.5274298444 -1.3751401044 1.3005432132
C 0.6030819421 0.1071977567 0.6079014135 -0.5629668480 -0.6553361351 4.4180374735
H -2.6154018774 -0.6663247693 -0.4710682589 -0.0895106241 -0.4744291324 0.2188472613
H -3.5604193053 -0.2160172961 1.0683651663 4.9377361921 -21.6436285513 20.4813460523
H -2.0382023314 -1.1358368860 1.1618409492 2.5464105412 -1.1378897880 -0.9603095997
H -2.3001983122 1.7606405602 0.2272374920 4.0790533652 -1.1994533692 -9.5313527552
H -1.5180477048 1.0952332484 1.7670718303 4.7322199923 -2.3410847600 0.5559402964
H -0.9074939124 1.2185710943 -2.0626501220 -0.3450233909 0.0723142627 0.2553243801
H 1.5893532830 0.4093867940 -2.4196885349 0.5850838192 -0.1592749870 -0.1445212924
H 3.1199289610 -0.4185719215 1.0642544910 -0.0099744844 0.1542515901 -0.5722072780
H 3.6838163292 -0.1212172670 -0.6361918807 0.1901548557 0.0852766350 -0.3592750433
H 2.8171931222 -1.6713773498 -0.1656347874 0.7165017444 -0.0089481049 -0.2098912634
H 0.6624488085 -0.1393386506 1.6546131503 0.1122265635 -0.1610002391 0.4725735685
F -2.5705566750 2.0166135718 1.3050183319 -9.7528773271 15.2168763766 12.5256253229
P -4.1395129335 1.5755281426 1.6550897175 -6.9488166543 6.6409345758 6.3962556377
F -5.2261988185 2.2507874782 0.6005626707 6.0091554419 14.0883005161 -16.0357079669
F -5.7827019231 1.3132836469 1.6264142541 -11.8108600780 -10.1945057352 10.7865102604
F -4.5780560137 0.4107059003 2.7536225816 3.4802056680 -3.6659955088 5.1433240598
F -4.2304418032 2.9564207522 2.5935014669 -0.1385199510 0.0922171963 0.9111921850
F -3.8083253644 0.3240846023 0.5816966626 -32.1098739908 28.3641752433 -24.3974686525
26
energy=-34489.4619974216 config_type=IL_pair name=EMIM-PF6 Properties=species:S:1:pos:R:3:forces:R:3
C 2.6730182831 -0.2035364828 0.7254632871 0.8789316028 -0.6496963332 1.3182932140
C 1.8526781113 0.8554465397 0.0315753996 1.4339365844 1.3135316503 -1.4210766122
N 0.5127385719 0.3637334175 -0.2241566045 3.8947031905 1.1520250818 -1.2166414061
C 0.1872580471 -0.2833366432 -1.3693778808 -2.8472221324 -1.9685271792 -2.3118710994
C -1.1533522527 -0.5884551793 -1.2416819954 1.0019422295 -2.1802899385 -4.9632563738
N -1.6264712632 -0.1424643654 -0.0600470497 -3.2453783141 -0.4850066786 0.4394886737
C -2.9891861260 -0.2784475490 0.4272648143 -1.7711712238 -0.5181597327 -0.7103810559
C -0.5791991299 0.4415729874 0.5498037470 -0.0882291575 2.7276116784 6.0529529111
H 2.1442516429 -0.4773582271 1.6729043158 0.7169934278 -0.2147697209 -0.5496834007
H 3.6854825863 0.2060345507 0.9328169113 -0.3665270805 -0.3344469114 0.1640267099
H 2.7719648344 -1.0574066212 0.0313532106 -0.0202469686 -0.1475221882 0.4959547582
H 2.3783783514 1.0737044407 -0.9416673959 -0.8043668124 -0.0442625809 0.3863108521
H 1.8164634166 1.8044604247 0.5682801577 -0.2586908563 0.4888812098 0.7053394398
H 0.8336487958 -0.5106742149 -2.1996122243 0.6483956862 0.0430827388 -0.3349653369
H -1.7932369173 -1.1150593212 -1.9627991233 0.0804298498 0.1231502496 0.1650254532
H -3.1252082093 -1.1891516841 1.0416315750 0.1151760732 0.0058807208 0.3496368135
H -3.3445507961 0.6103093976 0.9792482922 0.2920269278 0.0835924739 0.1148318827
H -3.6470858053 -0.4135020901 -0.4706684420 0.2929232725 0.1728967105 0.5016235058
H -0.5975921409 0.9041306201 1.5096690052 0.0272652965 0.6673028425 0.9039526419
F -1.2866903621 5.6309751515 2.0542721629 -12.7703785521 10.5936845368 -4.4270403913
P -1.3415878703 3.9710739552 2.0058117893 0.6589095640 -0.9594605996 -0.9271441542
F -1.2913953145 3.9427472315 3.6586758073 5.5677545952 -1.1551484097 7.5089915449
F -0.0476221393 4.9146748550 2.4884309570 16.9022848133 -0.1595048344 4.1322682643
F -2.7894069646 3.6959692250 1.2411024511 -3.6943446950 -1.7062336615 -13.8067572630
F 0.0573866007 3.0773418258 1.9705759137 2.9371595584 -6.4151245584 -1.2193384610
F -2.7640327591 3.8001415487 2.8343860444 -9.5958258103 -0.4395961237 8.6497504742
26
energy=-34463.5658275934 config_type=IL_pair name=EMIM-PF6 Properties=species:S:1:pos:R:3:forces:R:3
C 2.6507954505 0.5674864700 0.6776239447 0.6082182262 2.1766185357 0.8348024495
C 1.9490080192 -0.0515191506 -0.5145247688 1.7007266264 -2.1365897892 0.0188670549
N 0.5449290414 -0.2800063645 -0.2652894413 3.8022836426 -0.5938195647 -0.7805225067
C -0.0103816243 -1.3918343138 0.2510458142 -2.2157326608 -4.9588610197 2.2891495648
C -1.3810754275 -1.2256901043 0.3351556340 2.2406476441 -3.8494495649 1.3063280800
N -1.6102044171 0.0122262526 -0.1457269691 -5.3533090811 0.8331706487 0.6533844130
C -2.9248110490 0.5903275861 -0.2363582860 -2.7104568158 -0.2376851528 0.4022575816
C -0.4621320936 0.5789166653 -0.5048647134 1.6643305467 7.5720425203 -3.1419037486
H 3.7301143094 0.6147472465 0.4238840266 -0.2828538219 0.2757838588 0.4086638186
H 2.2256994060 1.5977268486 0.8304031706 0.7007111020 -0.6933665713 0.0459097171
H 2.5118243113 0.0100598644 1.6105959211 -0.0322485215 -0.2943659544 0.0045283836
H 2.1624871402 0.5510311348 -1.3965457232 -0.4556268371 0.4496164931 -0.7095049185
H 2.4548086707 -1.0437301061 -0.6600763944 -0.5760019895 0.3301893744 -0.3004070531
H 0.5106894423 -2.3040576008 0.5663409257 0.3922093753 0.3653555125 -0.2060542122
H -2.1175200174 -1.9465024689 0.7116320159 -0.0823163269 0.4306520896 -0.1680348379
H -3.4791458142 0.5528560265 0.7362083952 0.5292964976 0.1667169972 -0.1341298622
H -2.9090551697 1.6125179615 -0.6559024214 0.9932443223 0.6670911195 -0.5303975992
H -3.5268974825 -0.0286781849 -0.9338821819 -0.0683331672 0.0816850393 -0.1750425647
H -0.3191326956 1.5841222376 -0.9318698899 -0.4506389570 -0.5429017683 0.1578754400
F -3.1042276188 1.0120721386 -3.0296927194 4.0038911150 -4.6126020981 0.6250063133
P -3.7232697048 2.5614081930 -2.8266883607 28.3732581564 10.5008079556 -3.6274318735
F -5.1593587852 2.9435193119 -2.0842787199 -2.5792452759 43.5884920322 52.9054059451
F -4.8169340056 1.4197547748 -3.3557554494 24.4882679854 -64.6202980768 -37.1188743745
F -5.3518647487 2.2221483615 -2.9138758125 -62.4591280764 9.2805245098 -19.3066941268
F -2.2530372105 2.5749480778 -2.0454725104 5.3667330719 -1.1730865976 0.8179658359
F -3.7029790964 3.7027343188 -1.6190632765 2.3825618033 6.9944492642 5.7158231784
26
energy=-34471.2398735676 config_type=IL_pair name=EMIM-PF6 Properties=species:S:1:pos:R:3:forces:R:3
C -2.7405692702 -0.4227825004 0.0673075958 -0.8605548524 -2.0429548714 1.1527607023
C -1.8551532141 0.6494722503 -0.5132475546 -1.0542957298 1.7506788980 -1.5083289572
N -0.4921034876 0.5124482741 -0.0359833787 -2.0875064882 0.4217157538 -1.9226953501
C 0.0799157818 1.0543302590 1.0524279460 2.7816238495 1.4887826508 3.5646738243
C 1.4046228718 0.6298153484 1.0845819493 -1.3536410749 3.1383185549 3.9997124204
N 1.6097596887 -0.1595867027 0.0173007133 2.3308814337 0.9567031541 -4.4092621088
C 2.8448047064 -0.8362812207 -0.3689282573 3.9395505644 5.0204933874 -6.3087556933
C 0.4502228135 -0.2312353349 -0.6675977247 -0.8320072458 -2.2537844595 -4.0830233470
H -3.4364276377 -0.0431992007 0.8406127572 -0.0764331122 -0.0351234387 -0.5388299592
H -2.0883616561 -1.1512783407 0.5916948459 -0.2759540783 -0.0175401782 -0.2810593416
H -3.2574847119 -0.9519613728 -0.7524317606 -0.3293253682 0.0666342588 0.4642106793
H -1.8422013850 0.5683353842 -1.6289533285 0.1488099549 0.1222693604 0.4712724064
H -2.2722683115 1.6547794921 -0.2608473666 0.5363282262 -0.1922605537 -0.0766138032
H -0.4055605695 1.7006595459 1.7677609129 -0.4746894597 0.2757848849 0.1553966900
H 2.1374832736 0.8926652968 1.8398333843 0.3534660665 0.5404066769 -0.0722836866
H 3.4967396392 -1.0328775840 0.4985462188 0.7451288282 1.4267547205 -0.6369968985
H 3.4294036260 -0.2261354352 -1.0840636017 -0.3737184816 0.5838204236 -0.3901068514
H 2.6441487367 -1.8086851990 -0.8614758325 -0.2469455987 0.8162251908 -0.7607528348
H 0.2930291061 -0.7984829595 -1.5865375180 -0.0238148582 -0.0055498353 0.0661312067
F 3.8540463858 -2.9548271588 0.5396872290 5.4961286243 -0.2742181648 -4.5660485393
P 2.2757111528 -2.4576829029 0.8022495594 10.9118517577 1.3763819266 -7.9198208509
F 3.0533537348 -2.7712757213 2.2269154048 12.4459674155 -1.1512896278 6.8752038319
F 1.0065187019 -3.4243086303 1.3208350410 -39.0911431841 -46.8907322111 -47.3068188718
F 1.4868275116 -3.0353180019 2.1473355648 13.9966425645 15.9100927257 64.4237177601
F 0.7462176063 -1.8706398896 1.0866778260 -9.3885656650 15.6289437410 -4.3638917029
F 2.4298275111 -1.0394177429 1.6896295209 2.7809715805 3.3297875358 3.9743019024
26
energy=-34482.8375950401 config_type=IL_pair name=EMIM-PF6 Properties=species:S:1:pos:R:3:forces:R:3
C -2.5933577002 0.6958965422 -0.4363364719 0.0192346134 1.4522190051 -0.5065912938
C -1.8936668003 -0.6545041535 -0.3187718328 -1.2375274816 -0.4806780534 -1.0742556127
N -0.5390354386 -0.4148445036 0.1450785762 -3.8359425015 -1.5543324943 -0.4527184593
C -0.1688277346 -0.3753413319 1.4381934316 3.1628313868 0.4947370247 3.2728757592
C 1.2020387443 -0.1215501677 1.4023206617 -1.7760477412 -0.4371214131 4.8322729879
N 1.6145087201 -0.0169635673 0.1250352505 2.8969129420 1.0091841581 -0.2169810431
C 2.9404988649 0.2394431376 -0.3997360520 1.1062356399 2.6231996079 2.5752274146
C 0.5288713406 -0.2001939211 -0.6432827697 -0.4093495698 -0.0708780582 -5.9022373207
H -3.6613076593 0.5279488126 -0.6268936061 -0.1607832093 0.3744214225 0.0441824274
H -2.4102039818 1.3142723642 0.4688810020 -0.4522898310 -0.2933047310 -0.2856564768
H -2.1197922739 1.2249498430 -1.3029648873 -0.6139802681 -0.1266397962 0.5685697580
H -2.4578054321 -1.3477137432 0.3364882912 0.3786845185 0.0032089968 0.1836773374
H -1.8783934287 -1.0710969825 -1.3469244963 0.2810239902 -0.3938144648 0.2645915915
H -0.7995942433 -0.5111259684 2.3076929155 -0.4514895413 -0.1070170892 0.0933583500
H 1.8464063848 -0.0219665560 2.2697354551 0.4728574406 0.0904929427 0.0776708119
H 3.6958188556 0.2500480189 0.4236530993 -0.6794302510 0.1455441062 0.0489249195
H 3.2182905197 -0.5539311191 -1.1531734148 -0.7500005030 2.3354522114 6.1804543067
H 2.9661478592 1.2162560841 -0.9596623977 0.0458782254 -0.4672963697 0.8103264238
H 0.5094034036 -0.1795827881 -1.7293327543 0.3192720638 0.0701744061 -0.1489367347
F 5.3346904003 -1.1675813124 -2.7985204434 10.8038233065 7.6344569788 -4.1439048385
P 3.6936038832 -1.1639570953 -2.5713794260 6.5995441604 6.3978800784 -10.1600312723
F 2.9889412679 -2.6241841004 -2.9542956648 -11.6843463132 -11.6181522896 -20.5164681657
F 2.4714480760 -0.0398947191 -2.4398113522 -4.8412769759 2.1743489801 -1.4229965847
F 2.8956264675 -2.3043982422 -1.6329215420 -10.0349317170 -1.9533002218 18.8358310338
F 4.4223045462 -1.4180374051 -1.0820265087 2.1783567113 6.1215064388 8.5460945033
F 4.6103401568 -2.5481825844 -2.4193540308 8.6483532175 -13.4295043177 -1.5056685615
26
energy=-34436.6073962645 config_type=IL_pair name=EMIM-PF6 Properties=species:S:1:pos:R:3:forces:R:3
C -2.7043041055 0.6233124369 -0.3107219478 -1.9565483324 32.4297991030 0.0360847775
C -1.9219413381 -0.4590591005 0.3774338400 35.8624260354 7.2083823301 23.3879019114
N -0.5131408214 -0.4273684135 0.0720696664 1.9500422767 1.0684955199 -2.0925640195
C 0.1210892050 -1.0633676138 -0.9402003037 2.8277458969 -2.1408077162 -3.5448292929
C 1.4785781208 -0.7746913560 -0.8873288921 -1.2026209156 -2.2550296792 -2.5639249120
N 1.6473824037 0.0505126834 0.1810229965 3.8693148424 0.6555341678 -0.0449105882
C 2.8939270073 0.6341570595 0.6581154441 1.0646850680 -0.6304775063 0.5805480873
C 0.4503804063 0.2508243427 0.7462721213 -2.6397241542 2.4646770223 4.2271166384
H -2.2067142272 1.6094488206 -0.2920149297 0.6181609663 1.0164104528 -0.3161607192
H -3.6537113851 0.7470674065 0.2542270661 0.0242069483 3.6303540954 0.1549272787
H -2.9931806527 0.3403619311 -1.3435108828 -5.5052886993 8.8526355705 -5.8451536494
H -2.0172411709 -0.3954402283 1.4814060507 12.8068910518 5.4116514131 8.6488399270
H -2.3831820977 -1.4299871237 0.0415455996 7.0706298495 -19.7970245725 2.5200683127
H -0.3928869903 -1.7011352471 -1.6710867095 -0.0613914366 0.2283850332 0.1876659269
H 2.2507165124 -1.1318821813 -1.5585934156 0.5612910069 0.0836022021 0.0319253344
H 3.3140890952 0.0127094935 1.4730321471 0.1324963681 0.0583189678 0.2225250440
H 2.7459032371 1.6541220979 1.0497235609 -0.0680008412 0.1585530197 -0.2411282903
H 3.6064785784 0.5921593999 -0.1745595946 0.2632113012 0.4167013596 -0.1480142584
H 0.2777582228 0.8682555921 1.6194832544 -0.1048707766 0.2699214137 -0.0014684651
F -5.2251731494 0.2601144019 -0.4080702294 -5.9119567869 6.6499656506 0.0525817789
P -3.9632334462 -0.7977847998 -0.1537088461 -18.4453075597 8.5283413322 -10.7517137847
F -4.5866651129 -2.2981154358 0.1684544844 11.8528796565 -32.8776460118 12.8134393481
F -2.3924186167 -0.5702894383 -0.6539382377 7.6419397011 -12.6891751389 -41.7069937985
F -2.8645819840 -0.8105175634 1.1227487088 -25.8096064650 -9.9831516424 25.2778901840
F -5.4563592618 -1.5716287584 -0.0710844959 -33.7012945596 12.7746114762 -5.2445799574
F -3.1956549815 -2.1312425071 -0.7700200543 8.8512834804 -11.5396234729 -5.6304580394
26
energy=-34459.7428637102 config_type=IL_pair name=EMIM-PF6 Properties=species:S:1:pos:R:3:forces:R:3
C 2.6819906462 0.6683154386 -0.3826837332 -0.1709212971 1.4528685899 1.3323527231
C 1.9208901755 -0.6439770288 -0.2110800479 1.4756356387 -0.8302439045 -1.4418896770
N 0.5339623676 -0.3914852578 0.0770590155 2.4132789380 -0.6649555790 2.0866384303
C 0.0752896748 -0.2542826305 1.3538631652 -2.2819738960 0.6732124137 3.3994885391
C -1.2830982445 -0.0227927094 1.2882822045 2.1007236406 0.0253408550 4.1280882863
N -1.6221992858 -0.0234141599 -0.0131945695 -4.1628179868 1.1197866309 -0.5085941927
C -2.9656131340 0.1841482155 -0.5482310730 -2.4657903414 0.2404072057 2.5930897678
C -0.5191452282 -0.2472865461 -0.7496786505 2.1516690509 -1.4146212683 -4.7824259665
H 2.1315903095 1.3320527261 -1.0800000141 0.5264447372 -0.1833581238 0.0318149885
H 3.7117181502 0.4583758593 -0.6979349531 0.1123777548 0.3169656571 -0.1076885906
H 2.6599555607 1.1372286824 0.6424668457 0.4619823990 0.0593712260 -1.0877639932
H 2.4048259818 -1.1893297734 0.6210889665 -0.3318851737 -0.3972479050 -0.0988223837
H 2.0070163227 -1.2047608633 -1.1634617408 -0.1530378324 -0.3766264581 0.2171807473
H 0.6573704135 -0.3136186090 2.2588244960 0.6787019608 -0.1144280715 0.3198669545
H -1.9810091549 0.1344798948 2.0980091888 -0.4100037488 0.0989990653 0.2848350430
H -2.9996684630 0.9897024882 -1.3009277445 -0.3067785373 -0.0334147152 -0.7012418018
H -3.6508359312 0.4789036256 0.2685679265 0.3471318337 0.2499402559 0.4818212506
H -3.3410062857 -0.7791888634 -0.9733646292 -0.6117268092 1.0786535233 0.8918248524
H -0.4220338751 -0.3130704889 -1.8283825905 1.4254742038 1.1839196317 -0.2729589934
F -0.7205994710 -1.1870193116 -3.3141597419 6.0178277630 -10.1011440237 -1.7525591231
P -2.1224399425 -0.8749705090 -2.4945772166 -0.4844808729 -12.0210106942 17.0615691647
F -2.4431044151 -0.8548874029 -4.1283547145 -23.4069693856 -53.7397975743 -38.9500139001
F -3.0304289161 0.3332254420 -3.1773676589 -39.1688375182 20.2232036542 27.5558213830
F -1.1774191405 0.4365491623 -2.8625338378 19.5101552517 21.7079493029 26.2523974535
F -3.5581012709 -1.4314969236 -3.1169145379 -11.1416605003 -10.9223469479 7.6975532904
F -1.9774776343 0.0567042056 -3.8872450513 47.8721396042 42.3731806186 -44.6182040728
26
energy=-34489.1808115952 config_type=IL_pair name=EMIM-PF6 Properties=species:S:1:pos:R:3:forces:R:3
C 2.7137010774 0.3369719311 -0.5202216475 2.9981848300 1.6215297195 -0.1012740818
C 1.8474855180 0.4184240571 0.7089402616 0.6506392585 2.2107012027 2.5801880638
N 0.4945008631 -0.0488824734 0.4498308831 2.4856830174 1.1714796086 1.0109098405
C 0.0829872582 -1.3227812089 0.5937043238 -2.2733286072 -3.0314314313 0.0041767343
C -1.2539528979 -1.3407236411 0.2502835463 1.5557465373 -3.7008685183 1.1944583339
N -1.6256310831 -0.0752873048 -0.0951674964 -4.1281729101 -1.2522294093 -0.9385327205
C -2.9777068409 0.3032689800 -0.5205581416 -1.1782369784 0.3694904931 0.3040328831
C -0.5525873149 0.7158712965 0.0276290826 1.1910688310 5.0428513911 -0.6559466885
H 2.2630275278 -0.2473899650 -1.3449760293 0.3728405015 -0.0334759773 0.3589262421
H 2.9430056142 1.3685459272 -0.8877872037 -0.1512714669 -0.6591636621 0.1595810318
H 3.6956480652 -0.1030410412 -0.1796385311 -0.8754830240 0.2156739112 -0.9337749026
H 2.3110936597 -0.0928960110 1.6019152170 -0.7163568234 -0.1959198746 -0.7756536339
H 1.7573919063 1.4905698515 1.0453240760 -0.1064267107 -0.6528730019 -0.2337155320
H 0.7252444513 -2.1300811936 0.9192647689 0.3341679041 -0.3017862621 0.1333540993
H -1.8820476716 -2.2220420818 0.2606811128 -0.6547591589 -0.0788857629 -0.1701601846
H -3.5090697225 -0.5809775643 -0.9458865554 0.4686437757 0.3799349967 -0.1899145046
H -3.6047578057 0.6260108704 0.3602776348 0.4654824200 0.1627162901 -0.5178200921
H -2.8637639558 1.1306558296 -1.2538699069 -0.4489354256 -0.2201380211 0.1031624408
H -0.5645686489 1.7737837415 -0.1836278318 0.2995119364 0.3991241980 -0.0220268560
F 1.7183878281 -3.7017042990 -2.6954976656 -3.2023980802 -5.0104597930 -2.1338786936
P 2.9659205879 -2.6266890377 -2.8355553749 6.8396665550 0.4991323465 -15.4512085727
F 3.8506414502 -1.4575719626 -2.0539665142 4.1247930932 5.1729672496 2.6051229736
F 2.2240381227 -2.5112508413 -1.3444189030 -6.4351809071 0.9387512945 15.2541463290
F 4.5922157921 -2.8061194193 -3.0926968391 5.1262964870 -5.1128441233 -3.5689608266
F 2.0292262243 -1.3835551570 -2.2128705366 -14.9630147329 13.9331479059 -4.6927793524
F 3.4224446696 -3.3429877100 -1.3965696329 8.2063171693 -11.8666018394 6.6908007869
26
energy=-34453.4687551133 config_type=IL_pair name=EMIM-PF6 Properties=species:S:1:pos:R:3:forces:R:3
C -2.7978878163 0.0893966281 -0.1597208416 9.3721978770 10.3213976913 -15.4551244982
C -1.7385091927 0.8410349921 0.5583555000 10.9869791751 6.8770003376 -11.6651110586
N -0.4194653529 0.2469876665 0.4833253437 -2.2263019835 2.5629816781 -2.0344330207
C 0.1172685056 -0.6501661432 1.3313505715 1.9992449947 -3.2851430132 3.0679068154
C 1.3906961034 -0.9491282560 0.8909869555 -1.3666583319 -2.0622111809 3.5205715220
N 1.5857541406 -0.2166005783 -0.2197358308 3.8519870512 0.4416541642 -2.9677736975
C 2.8225370237 -0.2358830229 -1.0108664175 1.6835139094 -0.0393644101 1.1468250148
C 0.4924996008 0.5281209699 -0.4958519982 -1.1541679796 2.2964310886 -2.2446832344
H -3.7064937556 -0.0524389086 0.4801015226 -2.7906261559 42.6099952136 -42.9356617463
H -3.1665712637 0.6774823044 -1.0473332114 -0.4032228813 -0.0973758663 0.6343433647
H -2.5188897654 -0.8900454936 -0.5599206900 0.3187337032 0.2695864420 -0.8240745172
H -1.9873920502 0.9203130222 1.6572522198 5.9243614638 2.6193376850 -0.1254760992
H -1.6399771951 1.9016941920 0.1894758139 0.1577030867 -0.9119626366 -0.9357673778
H -0.3450746092 -1.0909478876 2.2275271014 -0.3372533782 0.4453326353 -0.3962606639
H 2.0788663538 -1.6414147239 1.3643816929 0.5228873682 -0.0186149973 -0.2587246031
H 2.9429695436 0.6960457968 -1.5836828928 -0.3082340539 -0.1435432498 -0.4369950944
H 3.6492995046 -0.2373530999 -0.2479793471 -0.2295019339 -0.2023135087 -0.7069012855
H 2.8920333659 -1.1626641993 -1.6092158712 0.0633123394 0.1775973335 -0.3963599703
H 0.3483368592 1.2255667414 -1.3354365566 0.1328491937 -0.3493648563 0.3898420255
F -3.8549037910 -1.6148424159 2.4291406146 15.6768182509 -9.7976921517 14.8361051303
P -3.6709363950 -0.6688614536 1.0485256029 5.6955594491 -55.6839934660 43.5321643832
F -4.4409634189 0.5497166334 1.8946782642 -3.2969815803 10.8249182965 5.4373093757
F -2.1538246310 -1.3504564403 1.0979320637 4.1571271365 -3.2245180451 0.7025194205
F -5.3023147819 -0.4633369460 0.8470498010 -26.8399529271 8.9731600466 -24.5378584485
F -5.0493217414 -1.1141264791 1.9057322353 -17.7165769587 -10.6840766642 12.7480735917
F -2.7728696919 0.4522334538 1.8674426482 -3.8778838451 -1.9219585454 19.8986373189
26
energy=-34478.9332006720 config_type=IL_pair name=EMIM-PF6 Properties=species:S:1:pos:R:3:forces:R:3
C -2.5961793540 -0.4907221572 0.7642570228 -1.8975888482 -1.2683562310 1.4830214103
C -1.9302532343 0.5478451164 -0.0982089452 -1.2421914517 2.4726629782 -0.9916196505
N -0.5649719348 0.2246847259 -0.4044565530 -2.8408059503 -0.5957134751 -1.8823370846
C -0.1532211602 -0.4970697668 -1.4862570121 1.8941154381 -2.2097106907 -2.9957643896
C 1.2332971248 -0.5909870667 -1.4258886049 -2.6445879134 -2.0460683590 -3.6893169701
N 1.6312443885 0.0677311637 -0.3218295672 2.9767035975 0.0842518280 0.0338563540
C 2.9762905028 0.2514140953 0.1722535556 1.9815831291 -0.5243553677 -0.3825164308
C 0.5240801838 0.5482148666 0.2726278012 1.3034992704 3.9321938499 6.0865974301
H -3.2764287408 -1.1095161538 0.1240383214 0.5013265355 0.1015716659 0.8231202370
H -3.1919601104 0.0415472010 1.5414169853 -0.0729201995 -0.4752575310 -0.4603069832
H -1.8785604877 -1.1234780832 1.3297313953 -0.1587696933 0.1420154507 -0.5572899327
H -2.4658960929 0.6870931418 -1.0760022870 0.2179764067 -0.2330199461 0.5561100884
H -1.9566662406 1.5477516096 0.3906765095 0.2099156532 -0.2231079432 0.0319108745
H -0.8084431662 -0.9160054598 -2.2492031196 -0.2861315376 0.0411692716 0.0615120550
H 1.8633397096 -1.1059935782 -2.1471145085 0.4847696108 0.0065473357 0.0732233982
H 3.3757304767 1.2748341078 0.0179490433 -0.4127971380 -0.0312723934 0.2294827025
H 2.9987610325 -0.0379982816 1.2629797370 0.6589696916 2.2435875831 -0.2091356336
H 3.6931604521 -0.4444175215 -0.3143275723 -0.5569089844 0.1412344087 -0.3770631158
H 0.5266766510 1.1250720408 1.1872663617 0.2663420172 0.0537636093 0.5782370378
F 3.9007012228 0.4641758816 2.5176566641 -0.5351528426 2.5563781980 -3.4962205790
P 3.0371222108 -0.5936312668 3.4786021721 9.6072015171 12.4844893435 20.4511914069
F 1.7783177078 0.2785500301 2.8010378080 -3.5181547552 3.5067957860 -2.7863669838
F 2.8272812328 -1.5271171355 2.1075768198 26.8747402797 9.1088968937 -59.5027215497
F 3.6652136846 -2.1005047970 3.1730519588 13.2918730392 -15.7106404914 16.6079332250
F 1.9682585491 -1.6348677912 2.7240321734 -52.9277143698 -15.4645018870 25.2799233543
F 4.6567232105 -0.7268039748 3.8314592904 6.8313554120 1.9115218115 5.0344523722
26
energy=-34486.8232959514 config_type=IL_pair name=EMIM-PF6 Properties=species:S:1:pos:R:3:forces:R:3
C -2.5920455266 -0.7141289535 0.5140841974 0.2596132788 -0.8774962628 1.7946405565
C -1.9322455212 0.0197040511 -0.6333073363 -0.7092654127 1.3261882623 0.2966208048
N -0.5502326880 0.2976376177 -0.2789975042 -4.8969540070 -0.0033530352 -1.1713702442
C -0.1180265742 1.4099202833 0.3504611464 2.8950379996 3.6000504951 2.1176966434
C 1.2652087073 1.2694054069 0.4933124697 -3.6419059301 3.6565536507 1.1804089622
N 1.5791958470 0.0893477474 -0.0550168325 5.1708011284 -1.4778334537 -0.0608320790
C 2.9319508019 -0.4684918075 -0.1279738394 1.5615808689 0.6574339753 0.4224895370
C 0.4844175057 -0.5283112488 -0.5367617715 -0.2501341079 -4.5424488926 -2.2329097737
H -2.0753676945 -1.6883446093 0.6568733236 -0.5496852954 0.1635591873 -0.1046833399
H -3.6667884999 -0.8579263398 0.3334319528 -0.0211023392 -0.0933033461 0.1475997386
H -2.4010527052 -0.1419913811 1.4564390798 -0.6154838307 -0.2684837046 -0.4702946505
H -2.4921168300 0.9765242551 -0.8206299021 0.6149130194 -0.4675974682 -0.0657829775
H -1.9293216885 -0.6369844727 -1.5269759112 -0.4970354455 -0.3116708294 -1.3966706932
H -0.7276399322 2.2633714284 0.6878770943 -0.1050768070 -0.5189099076 -0.2872872673
H 1.8837967488 2.0034827398 0.9602931420 1.2502906354 0.3079882644 0.3504814346
H 3.6166620541 0.2660514833 -0.6382306628 -0.3121576686 -0.4220299722 0.5336243014
H 3.2947192600 -0.6829698461 0.9111692864 0.1075772666 0.0664880869 -0.5705641503
H 2.9460844563 -1.3823818391 -0.7205624595 -0.2445973297 -0.5396347876 -0.1999328088
H 0.4828022792 -1.4939145152 -1.0254854729 -0.2351271233 -0.0687624658 -0.1584349323
F -3.3988835801 -0.2553804788 -4.0655349830 0.0685040759 2.9611938614 -0.5642676904
P -2.5574045987 -1.5056324997 -3.3589050459 -10.4242731619 12.5074550757 8.0347525763
F -3.8208373776 -2.3405586772 -2.6820873794 -4.4041864477 -1.3405379478 6.5546060799
F -2.2738776720 -3.1379010862 -3.6561228958 2.1449126457 -26.0479526364 14.3953925070
F -1.5369422507 -2.3679219012 -4.3464883431 14.6188967026 -1.7456415279 -21.1698468455
F -3.4009142742 -2.3507498970 -4.5061350523 -9.9068616274 5.7665091147 -12.5741473419
F -0.9106135311 -1.2608543069 -3.2824302003 8.1205686488 7.7100294128 5.1927380368
