34
energy=-58323.4038822015 config_type=IL_pair name=EMIM-NTf2 Properties=species:S:1:pos:R:3:forces:R:3
C -2.7429869694 0.4420933872 0.4777951345 -2.8839725864 2.2431714485 1.3176023785
C -1.8603224307 0.2805605840 -0.7094164066 -1.2538747028 1.8553031557 -3.1279607746
N -0.5091427472 -0.1337901452 -0.4129782220 -0.0897550515 1.0066431645 -0.2275399209
C -0.0967054158 -1.4121157717 -0.3389732428 2.5151542795 -3.5570387692 0.5823222338
C 1.2569215832 -1.3938652420 -0.0357819361 -1.2913905381 -2.2859742624 -0.2731665663
N 1.6466483721 -0.0955873441 0.0700155589 0.6897260695 1.4085571818 -0.1975184884
C 2.9840593162 0.3988336916 0.3763819497 1.0980937392 4.9529281490 -7.1589877054
C 0.5632693543 0.6689831078 -0.1614908762 -0.5076522017 2.9720256658 0.4572424235
H -2.1580919065 0.8914644260 1.3084470074 -0.3441368798 -0.4876277643 0.2027513269
H -3.5125840963 1.2276184432 0.2205618668 0.5843571613 -0.6931783141 0.0568055712
H -3.3142722247 -0.4602441267 0.7728729098 0.5623688546 0.3487379925 -0.0047753122
H -1.7733652728 1.2830865087 -1.2134295072 0.0990477144 -0.6081991425 0.2345049461
H -2.2785844983 -0.4000939423 -1.4781581406 0.1070239770 -0.1653560201 0.1677345681
H -0.6563932013 -2.3224733239 -0.4772495360 -0.9714022402 -0.2222014297 -0.2304492659
H 1.9400715849 -2.2096094588 0.1054304120 0.5662986007 -0.7025710163 0.1056175864
H 2.9505393349 1.3953080229 0.8148263612 -0.4628692547 0.3129791861 0.4294044297
H 3.4508488616 -0.3658355834 1.0442564684 0.7564564370 7.8417747559 -7.6767593717
H 3.5385237432 0.4364604298 -0.5923325794 -0.4387937675 0.3813245950 0.1403591720
H 0.5715666127 1.7692063368 -0.1438817123 -0.1714259851 -0.1177273477 -0.0032086979
O -0.4432551581 -0.6472233681 5.2179859901 2.1847192682 -3.1371497715 7.5087505909
S -0.8349873197 -0.3101193123 3.8255365926 3.4187709926 2.2036787633 1.0873577707
O -1.7398415007 0.8674910866 3.8654689748 -5.4434784971 6.4811306134 -1.2840945852
N 0.4884946109 -0.0137781519 2.7981866482 -0.0939625709 -0.8550045730 -6.1276680707
S 1.9683792233 0.2838896369 3.5685997217 -5.0069778183 2.3932644621 0.3468081383
O 1.8951071512 0.2913635620 5.0579177327 0.2225800019 -0.6139712233 7.6987604535
O 2.5203659246 1.5836391564 3.0380779814 2.7894646250 5.4163701413 -3.3551285603
C 3.1699874279 -0.9823936203 3.1396592448 2.9315314340 -3.7536632261 1.3900529847
F 2.7284709088 -2.2260306152 3.5240484978 0.0553027674 -1.3192958442 -0.2421623881
F 4.3593228133 -0.6976184208 3.7590197417 1.3241875136 -0.0535426470 0.2872802265
F 3.3901853291 -0.9588947487 1.7619846833 1.6696981185 -14.1789772472 11.0364216366
C -1.7499501744 -1.6761715028 3.1138474124 -0.7299475873 -3.8018176030 -3.5057936666
F -0.8769609149 -2.7586939682 3.0623298811 0.0482749740 -1.4889186340 0.2982853546
F -2.9099211374 -1.9417347595 3.7728656817 -1.4035686250 -0.6975365240 0.4426474321
F -1.9588774080 -1.3275848521 1.7743140087 -0.5369176177 -1.0896201681 -0.3599424567
34
energy=-58328.7972653905 config_type=IL_pair name=EMIM-NTf2 Properties=species:S:1:pos:R:3:forces:R:3
C -2.7429869694 0.4420933872 0.4777951345 -2.3875599733 1.5784215352 1.8855039664
C -1.8603224307 0.2805605840 -0.7094164066 -1.0449942779 1.8465373882 -3.2043387341
N -0.5091427472 -0.1337901452 -0.4129782220 0.0640216031 0.9443003763 -0.0174081968
C -0.0967054158 -1.4121157717 -0.3389732428 2.7434761462 -3.8643322857 0.6446322156
C 1.2569215832 -1.3938652420 -0.0357819361 -1.3958024318 -2.6681860818 -0.3146110434
N 1.6466483721 -0.0955873441 0.0700155589 -0.0714913725 0.7894496499 0.2784629474
C 2.9840593162 0.3988336916 0.3763819497 2.0909290344 -1.3026947530 -0.8641779850
C 0.5632693543 0.6689831078 -0.1614908762 -0.4389963551 2.6896615315 -0.6859041947
H -2.1580919065 0.8914644260 1.3084470074 -0.2752497227 -0.5490539180 0.0025609409
H -3.5125840963 1.2276184432 0.2205618668 0.5653464751 -0.8170662896 0.1802331321
H -3.3142722247 -0.4602441267 0.7728729098 0.6112959278 0.0973533854 0.1387018907
H -1.7733652728 1.2830865087 -1.2134295072 0.0843011798 -0.5968238263 0.2659854619
H -2.2785844983 -0.4000939423 -1.4781581406 0.0756374609 -0.1579732785 0.1840894903
H -0.6563932013 -2.3224733239 -0.4772495360 -0.9388917088 -0.2361165555 -0.2024278386
H 1.9400715849 -2.2096094588 0.1054304120 0.5679161669 -0.7248001336 0.1327037276
H 2.9505393349 1.3953080229 0.8148263612 0.0579005365 1.7116376817 1.4571769390
H 3.4508488616 -0.3658355834 1.0442564684 -0.0304732328 0.6532791499 -0.2008665323
H 3.5385237432 0.4364604298 -0.5923325794 0.0640084509 0.0477917133 0.4345589393
H 0.5715666127 1.7692063368 -0.1438817123 -0.1713850486 1.6737881807 1.1079341825
O 0.4550485055 2.9191583270 1.1090984489 -1.9169850439 -6.7791315852 -4.9509482848
S 0.6359679967 4.1832916367 1.8958354799 5.3443610694 -0.5035920845 -0.0118432961
O 0.8886806698 3.9011437025 3.3434142572 0.4490652890 -0.9611563990 7.4241526182
N 1.9818209685 5.0438892578 1.1960105713 -1.1141535305 5.4765370118 -2.0980356977
S 3.4114952538 4.1199089017 1.4418370657 -3.7371209432 0.1296285629 -2.0125310525
O 3.9590511349 3.7938028597 0.0811552623 3.2305084084 -0.7579008970 -6.5981186107
O 3.1295390347 2.8417956522 2.1624037953 -1.3401166075 -7.5256119656 4.3495875090
C 4.5619048661 5.1273832781 2.3652304240 2.9388144863 3.2150498850 1.9413008751
F 5.7204279879 4.4108184708 2.5777655164 1.3864763928 -0.3058347760 0.1950046422
F 4.0185335528 5.4636139624 3.5709703461 -0.4373014519 0.8348479083 1.7681688998
F 4.7904830565 6.2596992643 1.5894870358 0.6852414095 0.8786691414 -0.0325923782
C -0.7720032211 5.2565372623 1.7386027473 -3.5172763352 4.1834631433 -0.9777200632
F -1.0012030142 5.5328773418 0.4093313935 -0.4949240978 0.5984446030 -1.4704715582
F -1.9159201254 4.6923624062 2.2505491623 -1.2129435820 -0.3994428335 0.8149076324
F -0.4320939448 6.4269576396 2.4100346809 -0.4297077621 0.8103136638 0.4444975290
34
energy=-58321.3253307459 config_type=IL_pair name=EMIM-NTf2 Properties=species:S:1:pos:R:3:forces:R:3
C -2.5755503779 -0.7527070536 0.1530938093 -3.0269940758 2.0312015149 5.4661441520
C -1.8883745259 0.1735727511 -0.8505113286 -3.1148890559 7.1355017600 -0.3233320534
N -0.5422939348 0.3829676804 -0.2927199054 -1.4348056030 1.3685502682 -1.0096733517
C -0.1676850026 1.3646216709 0.5643073175 2.2549247043 2.2896827330 2.2713272626
C 1.1899503805 1.1750675464 0.8223049653 -2.2060635185 3.3187048646 1.9021549424
N 1.5860280945 0.0978323289 0.1208643134 1.6954469228 -1.0152490943 -0.5682247231
C 2.9264815324 -0.5010359250 0.0626953047 0.3560417687 -1.4352176293 1.4369637164
C 0.5189096887 -0.3769467142 -0.5560141340 0.4015133248 -2.3917115531 -0.6713359955
H -3.4229880858 -1.2973754589 -0.2646780758 -0.6610180341 0.1380096443 0.2327043834
H -2.8831577310 -0.1217841685 1.0034058636 -0.8266345500 0.0418184710 0.3171185709
H -1.8209354435 -1.4806527851 0.5511181329 -1.3036473551 0.8320293814 1.5217801024
H -1.7785189807 -0.3659630904 -1.7978107164 -1.2375448325 5.3708620467 -1.5110403209
H -2.4435818195 1.1271928458 -0.9199631694 0.5581531560 1.0284996036 0.4184005293
H -0.7870932180 2.1466275060 0.9751713828 -0.7045308606 0.3401342565 -0.0234761055
H 1.8133688380 1.7812076450 1.4676441109 0.5377024378 0.0754024113 0.2124294322
H 2.9782732143 -1.3082448656 0.8463621339 0.1008916392 0.7360227240 -0.2720489627
H 3.0253201172 -1.0369138079 -0.8958768536 -0.3232843399 0.5901686248 -0.4767373817
H 3.7227433912 0.2309206193 0.2124179579 0.0582201979 0.4833659380 0.0902336477
H 0.5491038627 -1.2383867246 -1.2018111091 1.0111155106 -0.9367179846 -0.9377317522
O 1.7291098309 -3.1298031914 -3.9055927150 -0.7114666305 -2.6387121394 -7.2509019194
S 2.0598549701 -2.5884839582 -2.5576614041 -3.6739268844 -2.3151767827 -0.2078784768
O 1.7955690516 -1.1049807653 -2.4500161501 -0.3668728223 7.6570842852 0.7052376680
N 1.1193093842 -3.3664466427 -1.3564557865 1.9063461832 -0.2395271182 6.0859568691
S -0.4612344688 -3.6591914601 -1.9538693028 4.0194332465 -3.7943512085 -0.8915472956
O -1.2599530396 -4.5169904466 -1.0149279905 -3.6798152745 -3.1195605881 5.4367682688
O -0.3322818874 -4.3303479146 -3.3067583483 -0.1183834470 -2.2616440347 -5.8086040464
C -1.3710521338 -2.1586659925 -2.2221623440 -2.4729956781 1.5964418179 -2.7541873591
F -0.6862917988 -1.4038166878 -3.1392934375 0.6186491851 1.9097572855 -0.9629264835
F -2.5873263427 -2.4929626199 -2.7733202515 -1.4691415975 0.0120433750 -0.3394728168
F -1.5882493201 -1.4930790924 -1.0378099088 6.1345711463 -14.5903925765 -3.4269785394
C 3.8090832353 -2.8036887130 -2.2669488497 5.8356667033 -2.3598142158 1.1075338044
F 4.5534880048 -2.1701124843 -3.2446482433 0.4614786038 0.8335592503 -0.4741467739
F 4.1690850957 -4.1445021667 -2.2996108244 0.1541170326 -0.9223475523 -0.0867462052
F 4.1351134410 -2.3460711964 -1.0030275464 1.2156927145 0.2293408978 0.7855612312
34
energy=-58289.5533625738 config_type=IL_pair name=EMIM-NTf2 Properties=species:S:1:pos:R:3:forces:R:3
C -2.6733690590 0.5106114887 -0.6654718923 -2.4303000453 -1.0645933795 -0.2773137474
C -1.8881912998 0.2048148891 0.5866930792 -1.3597709941 1.7198899403 1.8292712283
N -0.5226994384 -0.2120721681 0.2992660054 0.3955522984 1.4785115428 1.4087368398
C -0.0792645187 -1.4631412230 0.0909722206 12.9036616493 23.9839086714 -11.8090412159
C 1.2971390438 -1.3534850188 -0.1441739722 -2.4315865267 -1.1205082911 -3.2780072085
N 1.6236801066 -0.0501319038 -0.0683542730 2.3587026921 2.9926739304 -1.2781341495
C 2.9738943148 0.4492142477 -0.2586675394 1.9322147882 1.7200877966 0.7140097684
C 0.4976418667 0.6561940292 0.2060341386 -0.3431634415 4.6870613289 0.8387000781
H -2.5621565802 1.5571145617 -0.9544224328 0.2362037576 0.0405457593 -0.6293431565
H -3.7485635159 0.3265615044 -0.3922297797 0.6526296600 0.4288761107 -0.5600512310
H -2.4060679690 -0.2409035593 -1.4219740370 0.0063133109 0.5006371481 -0.5301426282
H -2.4178093253 -0.5440869601 1.2106852018 0.3988377796 -0.2049773995 -0.1673764786
H -1.8925702928 1.1629825611 1.1773227043 0.4775456150 -0.8278297847 0.0031753213
H -0.6735246371 -2.3812754807 0.1027855375 21.8783091746 56.2270561720 -121.1397925478
H 1.9376449974 -2.1933120076 -0.3453796320 -0.2065539948 1.1288346647 -8.3734851529
H 3.6458762262 0.1292363590 0.5828158289 -0.4030361940 -0.1909330947 -0.5372895671
H 2.9985771550 1.5564684086 -0.2343546218 -0.3447505046 -0.0846482659 -0.0540597198
H 3.4284998323 0.1533920198 -1.2142365030 -0.1128426897 -0.4561864407 -0.2476814153
H 0.4612630934 1.7318182521 0.3233764771 -0.0047463104 0.3530953519 0.2536844767
O 1.4551814239 -3.5194728806 2.6178196844 -1.6806048105 -0.6968030306 5.5460409426
S 1.6931515463 -3.3438442108 1.1285649862 3.2023518557 -10.4208259003 6.5404436420
O 2.2363605354 -1.9796592143 0.9355217228 8.1550334585 8.9149490697 7.5277059192
N 2.7525345148 -4.5599704979 0.5241839747 -2.8362550382 -2.6694406831 -3.8490178086
S 4.3839370278 -4.2932712221 0.9991846373 -1.9348550357 -2.5340357687 0.9450978940
O 5.0597714644 -5.6581042128 0.9339544832 2.3361832095 -5.5172031693 -1.7031103081
O 4.5381607067 -3.8305430550 2.3987893364 0.4714945908 4.1489309625 7.7778693101
C 5.2551239060 -3.2628664498 -0.1783695568 1.8861106854 2.8233614491 -3.3745725511
F 5.2219388169 -3.9259955567 -1.3820194656 -0.0347801928 -0.2300841930 -1.7371798078
F 4.6574603603 -2.0146835536 -0.2702167884 0.1156278672 1.0833320340 -0.4744563830
F 6.5664375130 -3.1952374539 0.2283227338 1.3480832472 0.6847950197 0.3162813220
C 0.1368660726 -3.5786832045 0.3008321222 5.2601730569 -12.7554890578 -6.3150103246
F -0.3178637953 -4.8541786414 0.6049812057 -0.6829461447 0.1145192895 0.4907210375
F -0.7807750006 -2.6187303641 0.5784609656 -48.6122100738 -73.1129649759 133.5518136507
F 0.4488458060 -3.5945027801 -1.0651585931 -0.5957160363 -1.1592444605 -1.4202755417
34
energy=-58323.5280187871 config_type=IL_pair name=EMIM-NTf2 Properties=species:S:1:pos:R:3:forces:R:3
C -2.5388120126 -1.0489667233 -0.1451211251 0.3629774715 -1.9103719045 -3.1532641128
C -2.0002349448 0.3375945601 0.2190052653 -1.8154592624 1.1036977357 -2.2442915504
N -0.5635595433 0.3818742704 -0.0891176060 -1.2384952395 -0.2283063725 2.1796479950
C -0.0032431671 0.7553736830 -1.2551997433 2.2107105555 1.0184821032 -3.6192985174
C 1.3644620886 0.6404373060 -1.0873164470 -1.2139275334 1.4647572362 -4.5570650364
N 1.6003833828 0.2042714214 0.1640352118 0.5155941302 -0.8485276361 1.1489419624
C 2.8995461546 -0.0569947373 0.7700461867 2.9144816401 -0.3238351308 -2.4144468056
C 0.4063252720 0.0376332191 0.8013397457 1.1566100593 5.2534279863 -3.8109368921
H -2.3595090565 -1.7238923580 0.7318130200 -0.2261919009 -0.0577115873 -1.4407894328
H -1.9967279919 -1.4373154125 -1.0478287367 -0.6018502358 0.5308558467 0.1826371454
H -3.6149783975 -0.9654361016 -0.3706412269 0.1364324962 -0.1930433898 0.0716274791
H -2.5630368119 1.0341843491 -0.4479315294 0.8409613227 0.4953822724 0.2259636138
H -2.1918279546 0.5526291858 1.2730698852 0.1363403305 -0.1377705570 0.2269972392
H -0.5430695662 1.0840118381 -2.1531581318 -0.1119771867 -0.1380252110 0.2867857312
H 2.0906290654 0.8716868165 -1.8562950347 0.7115520647 -0.1286003622 -0.0290176658
H 2.8403463654 -1.0084405273 1.3309281271 0.3521842806 0.1845690510 -0.7409792960
H 3.6545597140 -0.1217871246 -0.0629854623 -0.6027255108 -0.1394602294 0.4319419034
H 3.2472750840 0.7594505771 1.4268102727 -0.2245424881 0.0527710641 -0.0572754388
H 0.2714723198 -0.2963142419 1.7985473285 -0.9265486120 -0.3626178272 -1.6171197722
O 0.3907331900 -1.9224643198 4.4576699121 1.9358105246 -4.1917777927 4.3311531569
S 0.0733265199 -0.8100144548 3.4854105587 -5.3530972437 -2.0958171517 7.4709235712
O -0.0910174812 -1.4062389582 2.1116079408 -1.4288324357 -8.0721378247 -4.3776582256
N -1.3333570473 0.0611509198 3.9780923861 0.7649131362 6.3362196136 2.7149178165
S -2.6998301269 -0.8490971356 3.4464307099 4.4244040560 -1.3293963247 0.3803099039
O -2.7588041769 -2.1450327517 4.1671826187 -1.1508656398 -6.8956452021 4.8644043527
O -2.4803661890 -1.1082296907 1.9648433152 -0.7500936167 -0.4064751922 -2.0619083780
C -4.2085586300 0.0561993272 3.6118484613 -4.7903292141 3.8314318890 0.5441746819
F -4.1728884649 1.2171699723 2.8653206001 -0.0004043332 1.2572720329 -0.8605375065
F -4.4687823918 0.3917871672 4.9119641460 -0.5993654723 0.3386429546 1.6870321402
F -5.2205798214 -0.7400221285 3.1096765925 -0.9406802304 -0.7345141822 -0.2759699996
C 1.4921175302 0.2757270172 3.3966123979 3.3617062732 4.3041247980 -0.3613313027
F 1.7758963745 0.8608079482 4.6015108994 0.6560777149 0.3940988370 0.8514638086
F 1.2296446670 1.2539424532 2.4367957943 0.7351008536 2.4606370844 1.0167576820
F 2.5324079754 -0.4807609185 2.8934460019 0.7567741834 -0.8552611798 3.0043057906
34
energy=-58312.4749043300 config_type=IL_pair name=EMIM-NTf2 Properties=species:S:1:pos:R:3:forces:R:3
C -2.7321981973 0.5542323974 0.1342127363 -1.4809152686 0.5693144177 0.4104256545
C -1.8718319592 -0.2089116220 -0.8440144595 -1.1208899986 4.5542514716 -2.5113229272
N -0.5001965018 -0.3200587210 -0.3870807552 1.1078274807 2.8646922534 0.2784231266
C -0.0022563609 -1.3272910257 0.3809045984 3.6794433834 14.2108458279 -7.8491068358
C 1.3309949719 -1.1097931381 0.6223371179 -1.6079167317 -1.5485864190 3.6403551620
N 1.6362469325 0.0360109938 -0.0048957137 1.6588393142 2.0995059972 -0.5422497444
C 2.9450002661 0.6542706791 -0.0199405936 2.1049919594 2.0089004951 -0.9804097096
C 0.5234751103 0.5130396806 -0.6165017872 0.1340231953 3.6951510480 -2.1118949884
H -3.6669803327 0.8631033514 -0.3803541187 0.2617907001 -0.2014678004 0.1398812253
H -3.0335499658 -0.1266751415 0.9566506663 0.2688940410 0.5850563354 0.1409554891
H -2.2603580472 1.4806736751 0.4857622279 0.0890018062 0.0076485784 0.4984781105
H -2.2548238181 -1.2462638588 -0.9376886691 0.6252907375 -0.0730927545 0.0396596473
H -1.8737725849 0.2820087390 -1.8405729460 0.2775557513 0.1374940627 0.3319658041
H -0.5915281183 -2.1827643378 0.7470652577 -10.5685900628 24.6996613488 -12.4976473595
H 1.9489295800 -1.7738599626 1.2105282167 0.9172902390 0.2539121946 0.0397647985
H 3.7022670084 -0.0483993661 0.3578158482 -0.1005760036 0.0068823810 0.4443306885
H 2.9500831365 1.6309707814 0.5294347313 0.0636756793 -0.6806310353 0.1000958461
H 3.2521072891 0.8987410325 -1.0639753866 -0.2621436215 -0.1315821244 0.1941672764
H 0.4983915917 1.4309658433 -1.1952094601 0.1941807621 0.5311095513 -0.1816258096
O -2.8120552120 -4.9242290405 -1.6910640637 2.5556990325 -8.3255584771 -0.2892091393
S -3.2677968606 -3.5338161079 -1.4522626261 1.7243756986 1.1300345280 -2.4270749319
O -3.6361259811 -2.9670460577 -2.8134871398 -1.8851997582 3.4810122888 -4.9867757413
N -2.1097213532 -2.5200754313 -0.7307663296 0.2816153036 -0.2977685885 1.4649208996
S -0.8125622860 -3.3987367928 -0.0145909476 -6.5334286961 -8.9010469443 -8.7485281926
O -0.3828609808 -2.6970862152 1.2402750768 8.3496171119 -31.4226201893 39.2211683159
O -1.1430758528 -4.8324150318 0.2393695395 -0.9913134600 -6.9598132129 1.3235539288
C 0.5530727179 -3.2472275522 -1.1696708341 3.6135381978 0.3504026241 -4.1628238690
F 0.8376169726 -1.9015038106 -1.3017478426 1.4175903960 -1.4276464476 -4.9498567245
F 1.6760467217 -3.8646907422 -0.6806522632 1.1227271522 -0.9346756414 0.0876854296
F 0.1427949740 -3.7274022071 -2.4022061798 0.2180946902 -0.5459882454 -0.6289906656
C -4.7579841904 -3.4758774401 -0.4766912614 -4.8307573427 -0.2616435224 2.7032092996
F -5.6527673210 -4.3251271561 -1.1254955343 -0.7015315898 -0.6163409243 -0.2506621386
F -4.5558110838 -3.9518474130 0.7969975407 -0.0864889740 -0.1275693156 1.5698123986
F -5.3137152391 -2.2162328020 -0.4934668843 -0.5028075377 1.2752928714 0.4915047563
34
energy=-58327.4998303409 config_type=IL_pair name=EMIM-NTf2 Properties=species:S:1:pos:R:3:forces:R:3
C -2.6608367630 -0.0379787477 0.8190610680 -2.1110419453 0.4475745503 2.6525492026
C -1.9435616407 0.3546387934 -0.4319551071 -2.1351153547 1.4960394080 -2.0324980428
N -0.5616016224 -0.0331235143 -0.4839777275 0.6905277143 1.0154553723 0.7669665535
C -0.0104752151 -1.1752231482 -0.9570409225 0.7711077982 -4.1995063369 -1.8280943333
C 1.3634964029 -1.1368322428 -0.8145539243 -2.0510600757 -1.8204582283 -0.9218625641
N 1.6061038946 0.0746263653 -0.2375681776 2.6164003459 -0.1361764380 1.2851808563
C 2.9688505576 0.4919986549 0.0774775941 2.9225115509 0.6934953134 0.4881217186
C 0.4741317914 0.7365661200 -0.0372518712 -1.4086525494 2.8806338632 1.7067112698
H -3.5404332477 0.6619149611 0.9166726744 0.6671267586 -0.6811353161 -0.0457867014
H -2.0321624226 0.1499508041 1.7250226246 -0.3492395840 -0.4848876035 -0.5112353300
H -3.0931592091 -1.0590047015 0.8020019321 0.6077972115 0.1525153186 0.1297805999
H -2.4432156440 -0.0927842501 -1.3127673693 0.0755884760 0.0805197020 -0.0804594097
H -2.0230045666 1.4641407240 -0.5452329232 0.4481634744 -0.4385710527 -0.1304628388
H -0.5640963636 -2.0164415406 -1.3927261923 -0.3406119395 0.3406475991 0.0806845468
H 2.0929954707 -1.8845846475 -1.0907643342 0.5997625623 -0.1487680367 -0.0311985276
H 3.5777307567 -0.3736386000 0.4035135719 -0.4661995769 0.0607192604 0.5489365214
H 2.9517600819 1.3148123625 0.7970344975 0.0296576046 0.0750785716 0.4683479355
H 3.4305454033 0.8284693870 -0.8948624647 -0.8901149066 -0.0837040438 0.1915035137
H 0.4069323358 1.7324932204 0.4128314011 -0.1184135364 0.0851639402 -0.1099851383
O -0.2388915570 0.9013509498 -2.8250004023 -2.7113335262 -5.9575840169 1.5201757763
S 0.1028910338 2.2980954994 -3.3075973716 4.7570728596 -2.3375772785 0.3201409310
O 0.4316496300 3.2120316635 -2.1745390076 1.2206405369 5.4617183951 6.0039980706
N 1.4933598485 2.1310927258 -4.3404862800 0.4951564652 2.0405507334 -5.3073133239
S 2.7314673071 1.4234442553 -3.3681563691 -3.8498953488 -0.3397795468 -4.1049156690
O 3.4414442752 0.3784338999 -4.1938416936 3.8190965557 -3.9961158002 -4.1982844445
O 2.1515726571 0.7371405030 -2.1716264062 -2.2112667403 -2.6268475896 5.7404321844
C 3.9525561495 2.6173480467 -2.8959847400 3.5343646233 4.8238206796 0.8565707982
F 3.4275605925 3.6608694031 -2.1650457428 -0.4558121150 1.1246298913 1.0792804443
F 4.9295465286 1.9960572843 -2.1435078235 1.2050144759 -0.5420321024 0.7409252184
F 4.4736654997 3.1756622638 -4.0573105218 0.8809607897 0.2079068689 -0.6373055083
C -1.3068343287 2.8911828353 -4.1831570590 -4.8168720586 2.2151343903 -2.4875260060
F -2.3372736909 2.9749881847 -3.2362759280 -0.6558285985 0.3945084885 0.5713571326
F -1.7052158622 1.9540493530 -5.0892088364 -0.6520766236 -1.0367243329 -1.8428599110
F -1.1085756776 4.1264838097 -4.7469864115 -0.1412570074 1.2297439869 -0.8777924597
34
energy=-58295.6804899536 config_type=IL_pair name=EMIM-NTf2 Properties=species:S:1:pos:R:3:forces:R:3
C -2.5738328929 0.8369973102 -0.1874975288 -8.9788008877 -10.5108040130 22.3237759112
C -1.9863392347 -0.4911319905 0.3094374719 -5.5328216316 1.3961854307 1.2853493005
N -0.5580629812 -0.4286981155 0.0558229541 -0.3164762166 -0.0805924029 2.5641570932
C 0.0074335817 -0.8427253340 -1.0762103528 3.2711978185 -0.9067282794 -2.8611440775
C 1.3788009784 -0.6278712016 -0.9556344805 -0.9710275621 -0.9637025362 -2.5420887947
N 1.5882066978 -0.0783939762 0.2775509145 1.2515907504 0.4937291522 0.7121842541
C 2.8874662149 0.3167335857 0.8421532970 1.3144001658 1.8496261812 -0.6300873507
C 0.3910745867 0.0476520760 0.9096165995 -0.6958327451 0.4788696696 1.4327799832
H -2.3648082213 1.6141277976 0.5801559023 -0.7824385501 -0.4690460194 -0.2916443025
H -3.6464191693 0.7436800178 -0.4396640934 0.6231396079 0.0709903936 0.4016824467
H -1.9819376909 1.1378985264 -1.0800285020 -2.9915564536 -86.1841074999 119.2573243600
H -2.2132866569 -0.6401527796 1.3818092987 0.9039593951 -1.0165372961 0.2899421558
H -2.4569769467 -1.2611080855 -0.3210167669 0.4722199203 -0.6851549973 0.2991901463
H -0.4928149676 -1.2645141670 -1.9276704371 -0.7563377518 -0.3130864837 -0.5452957995
H 2.1344337330 -0.8545849371 -1.7004980957 0.5711140709 0.0710214022 -0.0440888789
H 3.5765362405 0.5000262407 -0.0186165275 -0.2212161498 -0.2908512436 0.3711592085
H 2.7886786276 1.3134674639 1.3513661176 -0.0504088072 -0.8688961353 0.0933905447
H 3.2836462756 -0.4737568562 1.4832373521 0.1919612165 -0.2483940250 0.5296668828
H 0.2382018251 0.4523544248 1.9039553908 -0.1856173396 0.1451903473 0.4215436653
O -1.7038549018 4.4671552237 -0.7707200893 -1.2094870163 1.2045631605 7.0874330470
S -1.3543236609 3.9386404284 -2.1351550393 3.7565040486 4.5645618151 -1.0544958512
O -1.9175890243 4.9517410155 -3.1227754344 -2.3141344716 3.0019369753 -4.7882906527
N 0.3058730087 3.8376220238 -2.2719822115 3.6784343846 2.5189143600 3.4153968041
S 1.0144222526 2.6736544890 -3.2442457813 -3.6813816200 0.7655101212 -0.9472710818
O 0.8711963173 2.9353419961 -4.7206555547 -0.3253661887 1.6261362407 -6.6696432171
O 0.6222989012 1.2427068361 -2.9461019802 -1.9403983062 -6.9094537817 2.3440610537
C 2.7798492911 2.6873844563 -2.8743893087 4.5881545857 1.9934903323 1.4995078903
F 3.2839899464 3.9475921076 -3.1562209141 0.7777011274 0.8971080418 -0.3411501171
F 3.4489532726 1.7602375430 -3.6367671861 0.6627636293 -1.0749629475 -0.4293549967
F 2.9600235123 2.4767489021 -1.5223890455 0.6617024429 -0.7973041265 1.4411480700
C -2.2711783954 2.4597516734 -2.3821504958 -5.3202414652 -0.4502353605 -6.0664359588
F -1.9665552313 1.4472244782 -1.5123143318 13.5945929469 92.0244514807 -138.2806237602
F -2.2922759471 2.0574747561 -3.7036090637 0.1448553385 -0.9802655195 -0.5520538990
F -3.6010500535 2.7765325633 -2.0640718444 -0.1792624467 -0.3568017483 0.2817497738
34
energy=-58323.0906782907 config_type=IL_pair name=EMIM-NTf2 Properties=species:S:1:pos:R:3:forces:R:3
C -2.6046354157 0.2245486959 -0.7927260420 0.0261832325 2.9987589094 3.0808876885
C -1.8986509858 -0.7667731932 0.1308277575 2.3807156709 5.6519969908 7.4781301452
N -0.5498716810 -0.2687092132 0.3352079054 -0.8766150795 -0.0785733842 0.7125340129
C -0.1670836547 0.5685554152 1.3177691289 2.9635275271 2.1534651238 2.2957206600
C 1.2010169886 0.7957163951 1.1559886512 -1.9707056098 2.3013282416 4.0310673438
N 1.6217951170 0.0992685609 0.0882326256 0.9884980483 0.3218584803 0.2350547818
C 2.9532433545 0.0383303357 -0.4438332286 2.6094448565 -1.5232415741 -1.5153984746
C 0.5527008762 -0.5376847234 -0.3956847460 -1.2759781851 -2.5223232107 -3.1106929148
H -1.8703382801 0.7411926461 -1.4099059718 -0.0055149461 0.0808541852 -0.5397307009
H -3.3687426467 -0.3556036632 -1.3370523991 -1.0107187663 1.3745719833 -0.8178183408
H -3.0730960371 0.9742335606 -0.0984359866 0.2749221517 0.0639562133 -0.8767601893
H -1.7835779501 -1.7308083520 -0.4371230353 2.7128628528 -0.3140546422 3.2012903874
H -2.4596924870 -0.9349994478 1.0624176574 0.5065620607 0.7160351885 0.6130393490
H -0.8342421435 0.9587736053 2.0621568182 -0.6309463689 0.3061488842 0.5681677124
H 1.7925250049 1.4321613210 1.8011089912 0.7677395343 0.1841706280 -0.0175435008
H 3.6843800926 0.5504234286 0.2010859605 -0.2601842520 0.5067952596 -0.0615424616
H 3.3071720684 -1.0296279534 -0.5008014051 -0.4272348985 0.5616666043 0.0345804585
H 2.9226680652 0.4215109403 -1.4823071585 0.4098441096 0.2942292340 0.1300729534
H 0.5744297143 -1.1805083585 -1.2569255230 -0.0416677160 -0.8216146984 -0.8159267393
O -5.6099860833 -1.4530283341 -4.1984023243 -3.6039854434 0.7349031464 -5.9212418906
S -4.8128004166 -1.8121729009 -2.9744820390 2.6398019310 -0.3841460545 -2.3941691050
O -4.4862964904 -0.5443495709 -2.2457595469 0.8129817064 6.0783280340 4.1231132334
N -3.4189903078 -2.6853867855 -3.4691773434 1.1222417862 -1.8445956792 -4.6941331243
S -2.3038334708 -2.9232489074 -2.1854115567 -4.6866190275 -6.1354668893 -5.6688506426
O -2.4675082053 -4.2905545330 -1.5724331531 -0.1233684729 -6.0124630808 2.6817284194
O -2.4538293165 -1.8259210971 -1.2058737992 -5.4394001146 -0.9376009624 -4.0663251597
C -0.6672190859 -2.9172066355 -2.9320849338 4.4092651394 0.0420976747 -2.7627324677
F -0.5677028745 -3.9321521201 -3.8618220353 0.0486308036 -0.7936055000 -0.6266775044
F 0.2939365536 -3.1589604305 -1.9495476352 0.8137585092 0.3618185129 0.6827126987
F -0.4232886751 -1.7230945995 -3.5756890883 0.6769815676 1.2210108271 -0.3657249144
C -5.8942895116 -2.8455421891 -1.9805099558 -2.9063695352 -2.8753442107 2.4760234401
F -7.0173226595 -2.1457457854 -1.5804064355 -0.6878714223 0.5706453769 0.8300471791
F -6.3427370963 -3.9034578777 -2.7328257693 -0.3926816774 -1.4751824742 -0.6176727319
F -5.1213660815 -3.2811942855 -0.9286858739 0.1895474582 -0.7842514419 1.6835836163
34
energy=-58327.7011120866 config_type=IL_pair name=EMIM-NTf2 Properties=species:S:1:pos:R:3:forces:R:3
C -2.6620652363 0.4078226881 0.3658643425 -2.1709338596 0.7176716817 1.1706951361
C -1.8811803661 -0.1888065486 -0.7981218261 -1.2146405939 2.5047441424 -1.2948048225
N -0.5066337659 -0.3305852266 -0.3498770166 -0.6441864155 -1.2283147144 -0.7132227495
C -0.0074779999 -1.4427870634 0.2651666462 2.6584928378 -1.4531815816 1.3736790048
C 1.3355171501 -1.1579176649 0.5226046536 -1.6171083426 -4.2863528103 1.4006469601
N 1.6238498429 0.0860756711 0.0735377715 1.1784782285 0.1864686914 -0.0631202245
C 2.9195316191 0.7495040228 0.1562134763 1.5426794004 0.7584719706 0.1794178128
C 0.4854416504 0.5741347157 -0.4557388843 -0.9980822502 4.2129608311 -2.1181606044
H -3.2606031317 1.2944369042 0.0379661987 0.3134233683 -0.6265302371 0.0608436818
H -1.9947244654 0.7701189081 1.1743017909 -0.2723092055 -0.3906131453 -0.1544212077
H -3.3813497829 -0.3576577606 0.7361341686 0.3963403645 0.5397743371 0.3231283730
H -2.3217012560 -1.1068117194 -1.1966279952 0.3154448860 -0.5919248038 0.0002307598
H -1.8683552046 0.5635655949 -1.6358484124 0.0748816639 -0.6798362949 -0.5035960348
H -0.5533473316 -2.3547024713 0.4999825965 -0.3681248408 -0.0841964476 -0.1038943114
H 2.0095469552 -1.8555163584 1.0102171989 0.6859998495 0.1487004566 0.1138576918
H 2.9262120921 1.3584022550 1.0828034606 0.4273819518 -0.1521882486 0.0658708027
H 3.0306505261 1.4314240975 -0.6972558960 0.0041086198 0.1401977061 -0.2902516187
H 3.7464382094 -0.0065119063 0.1225623964 -0.5649870183 0.4210867950 0.2591278934
H 0.3602504953 1.5658118622 -0.9138846702 0.0813104185 -0.1159209544 -0.0100787851
O -2.5504999078 2.2240084162 -3.4338252688 4.3229923092 1.9056638488 8.0361172760
S -3.3089196691 1.7777814830 -4.6292999745 3.3730747547 -0.0474853557 -2.7217127621
O -3.9396889558 2.9715370752 -5.2737892150 -3.8266127934 5.5149215490 -3.9006621594
N -2.2359710933 1.0582621811 -5.7411757718 0.6201128471 0.6050155446 -4.8689344692
S -1.2656256680 -0.1402753115 -4.9543154458 -4.2200823978 2.4489465389 -0.4784981429
O -1.5527465508 -0.2034070107 -3.4661966704 -0.7275137756 -0.1210032659 7.0955922934
O -1.4544807984 -1.4618514782 -5.5995413081 -0.4082456796 -7.4147585930 -4.0454661308
C 0.4324510852 0.4273330227 -5.0713410536 4.1660802639 1.2222003673 -0.1540557673
F 1.1838347937 -0.5571871746 -4.4302539857 1.0880966365 -0.3556706858 0.3767388997
F 0.5188481377 1.6153173794 -4.3723683110 0.6803314016 1.1089059315 0.4677161489
F 0.8437386688 0.5705064033 -6.3675648896 0.9588499066 0.3911489983 -1.3143278451
C -4.6049909201 0.6422722763 -4.2098168816 -4.0058678976 -4.0028709622 1.9346392445
F -4.1204830633 -0.5180950624 -3.6351726036 0.3961091167 -1.2919713664 0.7547415272
F -5.4601253201 1.2381158991 -3.2881726918 -0.9294474051 0.3379553096 0.5027368451
F -5.2740834892 0.2739389885 -5.3457894147 -1.3336253120 -0.3336197920 -1.3826117959
34
energy=-58305.6316431970 config_type=IL_pair name=EMIM-NTf2 Properties=species:S:1:pos:R:3:forces:R:3
C -2.5521248180 0.8061171544 0.2337070092 8.7117403165 6.7561059412 2.0248652744
C -1.8836659520 -0.0815486812 -0.8141513716 5.3917997745 17.1816802745 0.6350116157
N -0.5727522100 -0.3908196670 -0.2791634895 -1.8164016820 2.6085668305 -2.6917086282
C -0.1717746819 -1.4042479167 0.4985477156 2.7619868696 -2.8708840024 3.1378024651
C 1.1909143467 -1.2401702115 0.7301894512 -1.4110777260 -3.2287545642 1.9391450337
N 1.5966928204 -0.1243483839 0.0860961887 1.1821459528 -0.3267442851 -0.3082330917
C 2.9386028498 0.4062931475 0.0675441824 0.8494987281 2.6974546223 -0.2811879555
C 0.5046251067 0.3916417075 -0.5322594752 0.1987392766 3.0268350469 -1.5927136208
H -3.5367845736 1.1209198558 -0.1492541733 -0.5284068258 8.1679236676 -0.8791993048
H -1.9492479315 1.7402391709 0.3797570573 1.7851846194 0.9708171748 0.3498053175
H -2.5805171358 0.2326712178 1.1709936000 3.2570421687 2.4505522926 3.4420229769
H -1.8064872603 0.5012378408 -1.7476872331 1.0296525193 0.0471768698 0.3479057002
H -2.5299656606 -0.9771151204 -0.8715192575 8.5860311480 11.2846339005 -2.8804196239
H -0.8077444038 -2.1882045003 0.8631858206 -0.5785937393 -0.4836250204 0.2276164891
H 1.8456264680 -1.8794703329 1.3214192033 0.2531045989 0.0336775064 0.0317838606
H 3.7293842597 -0.3308256716 -0.0522948383 0.2376204850 -0.7385806662 0.1443941744
H 2.9976962706 1.1287153437 -0.7793371063 0.1075853498 -0.3021025231 0.2542668690
H 3.0492187906 0.9990044188 0.9983896185 0.6068322088 -0.1570839647 0.0175637789
H 0.5383037149 1.2899106285 -1.1241629019 -0.2400043945 0.5347137976 -0.4016788766
O -2.1029920223 -0.3974737391 -3.1792831897 -0.7115501168 7.4604980401 -4.1385630129
S -1.9240191073 -1.7663491856 -2.6358775219 -2.3542349700 -2.9670634841 -1.6439551059
O -2.7649147694 -2.8051342318 -3.3379131958 -3.4705234770 -4.6079510385 -2.8140378038
N -2.1753036174 -1.9024684360 -0.9530877346 3.5976862865 -23.8477818803 0.6046579291
S -3.6996463061 -1.4194181004 -0.4159736089 -9.9841538542 -13.6787560865 3.1816225773
O -4.1113937278 -2.3483535882 0.6964952371 -2.1950296885 -5.2769089914 4.4332732113
O -3.6783863651 -0.0424138131 0.1844681821 -16.1558983341 -1.9714885181 3.3611426887
C -4.9611675757 -1.4611783632 -1.6505884295 -5.2195092671 -0.8930963493 -4.7863917463
F -5.1296610013 -2.7425728398 -2.1603803682 0.0016614393 -0.6554676857 -0.7836764568
F -6.1547154483 -1.1449936737 -1.0213247754 -1.0434427627 0.3943859309 0.7877761103
F -4.7731717142 -0.5131581682 -2.6338319976 0.3453474183 0.5093633494 -1.1192623895
C -0.2178199409 -2.2578142943 -2.9205309142 5.2283585590 -2.7156376068 -0.3530127061
F 0.6710229175 -1.4699630322 -2.2567638144 1.6284909042 1.1644747600 0.6336199396
F -0.0281466896 -3.5691498728 -2.4736611518 0.0083706968 -0.5842307924 -0.0079476408
F 0.0776235770 -2.1975965988 -4.2742397622 -0.0588113798 0.0131774623 -0.8462663872
34
energy=-58314.3216525641 config_type=IL_pair name=EMIM-NTf2 Properties=species:S:1:pos:R:3:forces:R:3
C -2.6445574895 -0.3643183109 0.6168926210 -3.8230960176 -3.8863863830 -1.1200572200
C -1.9094819965 -0.1007152377 -0.6801757431 -1.6541980555 -0.2310593707 -0.1115640077
N -0.5264122913 0.2595253177 -0.3874218639 -0.9438456847 -0.9978941959 -3.0858184121
C -0.0136956178 1.4930515347 -0.1689250040 -6.4122113431 -5.0815342023 -8.0745098535
C 1.3435362888 1.3120399433 0.0648839478 4.4051163691 -2.1055706975 -7.9040875357
N 1.6041680652 0.0045785442 -0.0174665513 3.5056076725 -3.3910762925 -1.2575310003
C 2.9169902495 -0.6210306480 0.1636692362 1.0878844246 -1.6814361809 1.0755968247
C 0.4716490836 -0.6613577998 -0.2942536070 -2.1544376444 -3.8160698632 -0.6947481066
H -3.2819854748 -1.2728704919 0.5200918145 -0.5118590925 0.5510175369 -0.6526851605
H -1.9378784568 -0.5976118176 1.4529332845 -1.3389219422 -1.1044509081 -0.8607352621
H -3.2624342927 0.5076262986 0.8681819292 -0.2342843754 -0.3450398080 0.3354065247
H -2.4106857869 0.7325022555 -1.2102756921 0.4239974220 -0.1130572202 -0.3830633714
H -1.9253304084 -1.0181651343 -1.2714932619 0.2561538151 -0.1686765657 -0.6889136159
H -0.5841213908 2.4120460557 -0.1829065417 -3.1045152358 -0.4102925673 -2.6785781155
H 2.0629325458 2.0906092573 0.2762441075 6.1774228403 -1.5141219815 -5.4601047267
H 3.2052480626 -0.5805685715 1.2507974225 0.0721062127 0.3894802484 -0.8765035972
H 3.6802251240 -0.1736378300 -0.5016446665 -0.0818887449 0.3025049127 0.2665618644
H 2.8589952331 -1.6969860717 -0.0764806401 -0.2524891976 -0.0071853373 -0.2800045714
H 0.3528385529 -1.7247172938 -0.4226507916 -0.0242059810 -0.4411582520 0.1206968998
O -2.0085354940 1.0629463020 4.1159046934 -3.1720144909 -1.4791665932 6.4217318990
S -1.2830379747 1.5805037506 2.9095596370 2.9920821129 -0.7991618994 2.0786759296
O -1.3472058565 0.5105007451 1.8610282179 3.3364016019 -0.8825105513 -2.7783741473
N 0.3245606690 1.9119404030 3.3395497733 2.7299631594 1.6039261786 4.6382880222
S 1.3761423082 2.2421067562 2.0469146571 -1.0415412346 0.0893160792 12.8938379360
O 2.3248915736 1.0761708597 1.8632970385 4.7096849715 -3.7457098276 1.9308231847
O 0.6940624248 2.4158589921 0.7204768604 -5.4767044180 16.9493466329 7.6392868415
C 2.4197946548 3.6686550855 2.3859424854 2.7343844620 4.9147173189 2.1474038990
F 3.1814367687 3.4489689068 3.4992567872 1.1890436692 -0.2272492174 1.4070280059
F 1.6130102314 4.7666973666 2.6261867365 -0.4809557592 1.0905090341 -0.0795003251
F 3.2412918706 3.8807082864 1.3087511661 0.7745205430 0.3285444737 -1.3292159223
C -2.1822293520 3.0195190591 2.3582527870 -3.5212928424 3.9003324308 -1.4554094194
F -3.4684051262 2.5527722255 2.0524282877 -0.4447010488 0.1193212629 -0.5401238753
F -1.5720873744 3.5604242630 1.2467001773 0.2058076570 1.1096364273 -1.1709698190
F -2.3168353336 3.9442293727 3.3711992922 0.0677637679 1.0820603375 0.5311128961
34
energy=-58324.1887297318 config_type=IL_pair name=EMIM-NTf2 Properties=species:S:1:pos:R:3:forces:R:3
C -2.6611741033 0.6499587025 0.2508974202 -0.9237786106 1.6387248247 -1.0464008290
C -1.8695805889 -0.6504010634 0.3817744854 -3.3932821510 -1.7219969717 0.8076274479
N -0.5307442072 -0.4626596954 -0.1156997248 -0.3199998289 -0.3594324778 1.3304784388
C -0.0710965441 -0.6440239916 -1.3686223219 2.3782166297 -0.1404597028 -3.3956423765
C 1.2925473073 -0.3323738547 -1.3452566627 -1.7179417078 -1.0389867686 -3.2442401574
N 1.6050002220 0.0251532655 -0.0804027585 1.2243874598 0.1084447413 1.4678859726
C 2.9025681030 0.4368973840 0.4489519456 2.8103647496 -3.6594719796 -2.6393738335
C 0.4905772533 -0.0538081797 0.6740753449 -0.2777870941 0.1245978122 2.5228384642
H -3.4891642917 0.6986938096 0.9964040311 0.2727456051 -0.2244876891 -0.9037165106
H -3.0712006199 0.8121381513 -0.7515929749 -0.0990236107 -0.3641425903 -0.7533189460
H -1.9456942637 1.4658434800 0.5438836742 -1.3413464653 -0.6630799317 -1.8057889395
H -2.3896399294 -1.4786235782 -0.1323233737 0.4474804925 -0.1504027471 -0.5327061614
H -1.8450388534 -0.9190580889 1.4585534607 0.3882886936 0.1549258133 -0.2556710303
H -0.6470695455 -0.9696284687 -2.2323739357 -0.4454553895 -0.0961998310 0.0127384618
H 1.9887033850 -0.3640042599 -2.1729167127 0.5256454439 0.0596724296 -0.2405053929
H 3.0114766553 1.5477104536 0.4152090889 -0.2591763713 -2.7156879528 -2.7149064905
H 3.7190903818 0.0189655919 -0.1803625836 -0.5390875427 -0.4275927421 -0.0758788265
H 3.0865091215 0.0453011765 1.4673607799 -0.5812427072 0.1775636995 -0.1341420232
H 0.4239305180 0.1739191657 1.7424408178 -0.2856938649 0.7070092951 0.6803037012
O -2.2336493153 2.2997453660 4.0653015978 -2.6821069339 1.6314447520 5.3969009973
S -1.5070369511 2.1887691339 2.7321855670 2.6635517798 -1.9799273606 4.5218080646
O -1.9256447761 0.8273091310 2.1944869423 0.5550313973 -5.1827605639 0.6181401549
N 0.1639782396 2.1691083307 2.9258923429 3.6405341706 -4.6197264149 0.9495418169
S 0.9887763273 3.5626290490 2.3870887550 -4.7025301782 -0.3685287998 1.0166087856
O 0.8056974192 4.6838086435 3.3534647323 -0.1648901207 5.4714961817 5.8159363680
O 0.5591410889 4.0532206440 1.0396975564 -1.8066392454 1.4570269411 -7.6172913270
C 2.7326318525 3.2370828963 2.2512581442 5.3805763165 1.3937213819 1.6544185928
F 3.3393215930 4.4096005346 1.8096860089 0.3785327972 0.5798735594 -0.3651627776
F 2.9782136224 2.2694461138 1.3171477604 1.1997792180 4.1273666430 3.6568879248
F 3.2831438002 2.9358038956 3.4800012654 0.8132949472 -0.8251480414 0.6088344532
C -2.1739489479 3.4178743715 1.6887510556 -3.5952663172 4.4647095284 -4.5959392553
F -3.5644205555 3.2338177220 1.6861701453 -0.9386884203 -0.0888749286 0.2119203200
F -1.8144689654 3.2677013037 0.3543064145 0.8136964313 0.5933819972 -1.1709036309
F -1.9398610140 4.6617408895 2.1861413026 0.5622177301 1.9411118475 0.2221753034
34
energy=-58305.5992504595 config_type=IL_pair name=EMIM-NTf2 Properties=species:S:1:pos:R:3:forces:R:3
C -2.7543284159 0.2513601499 0.2606846476 -2.0781298308 -0.0134820730 0.7180827797
C -1.8335507003 -0.1728319398 -0.8598721517 -0.7909229904 -0.3770902914 -2.1052095564
N -0.4674512737 -0.3128399485 -0.3812623063 -0.2492182406 0.8479244818 -1.0713092088
C 0.0968554424 -1.4370958776 0.1226047972 13.2724050998 7.1366321618 -4.3177373045
C 1.4213288769 -1.1726349613 0.4717391860 -1.9014089400 7.6345543861 -3.4154622053
N 1.6322892839 0.1349393022 0.1640473370 -1.1963619998 1.4804806583 -0.0003045943
C 2.8570277203 0.9017056948 0.3369650622 1.4620419840 1.6549186229 0.5566254011
C 0.4974840505 0.6186729277 -0.3390181647 0.0285435356 6.6928430938 -1.8715112846
H -2.3119045680 1.0488215151 0.8699722718 0.1246862643 -0.1484619386 0.2883583092
H -3.7001729512 0.6527377927 -0.1590899382 0.2662068189 -0.1742176591 0.0831127639
H -3.0198247595 -0.6553099072 0.8451300819 0.1849474069 0.7033279107 0.3376816399
H -2.1182525375 -1.1835658095 -1.2370435590 -0.0824198361 0.3964285921 -0.0704848352
H -1.9122472867 0.5422321895 -1.7062373885 0.4077114767 -0.0996378499 0.0808642191
H -0.4265407387 -2.3692367719 0.2222416143 13.9613305023 13.0462210267 -15.5836534526
H 2.1423968300 -1.8586723504 0.9000989587 0.2033621157 3.0575601387 -0.3770671874
H 3.1941471054 1.2492724805 -0.6539039681 0.3728366787 -0.1014257866 -0.0541493248
H 2.6996972863 1.8108677025 0.9647088297 -0.2916049329 -0.3133893997 -0.1927680108
H 3.6368126348 0.3073210982 0.8538178200 -0.2296177786 -0.2862458409 -0.4358420922
H 0.3662340009 1.6442567131 -0.6755831299 -0.1829627668 0.2761202371 -0.1813392901
O 0.8653012329 -5.2610132731 1.2158343543 0.8435577159 -7.4082906821 -3.2303036775
S 0.6469174445 -3.8332500668 1.5689906671 5.4489586249 -0.6007379052 3.4800766060
O 0.2923023187 -3.7514326068 3.0278105953 -2.2941876093 1.5460210851 6.3656109034
N 2.0247426282 -2.8508690953 1.2594383736 2.1402588238 -8.4850620354 5.4328273885
S 3.3548278823 -3.7461236348 0.6468407821 -2.7607161767 -4.2359484426 0.2895684878
O 3.8235669758 -4.8070915306 1.5966076354 2.8273229663 -4.3742393903 5.3772610755
O 3.0263210400 -4.4029502825 -0.6717126662 -1.6509807888 -1.8199159017 -6.3534169417
C 4.6699608616 -2.5837306975 0.3451504621 3.4817447827 4.2410699710 -0.3359838170
F 5.7981287676 -3.1931065363 -0.1521390584 0.8742141012 -0.5127330342 -0.5538709054
F 4.9695311216 -1.9791617628 1.5421756653 0.8494562683 1.0663770991 1.5462068691
F 4.2188952376 -1.6136109315 -0.5194104279 -0.0782895949 1.2566197251 -1.3659106289
C -0.7168444220 -3.1566635885 0.6464848701 -9.1173256179 -20.3407448555 4.2558387180
F -0.9725928152 -1.8723903942 1.0283601508 -20.1714207224 9.0719324645 22.7250040631
F -0.4166860558 -3.1497126503 -0.7177279526 -2.7175845117 -10.6727320853 -10.2841137863
F -1.8363253406 -3.9283759767 0.8435603687 -0.9589227214 -0.1481613729 0.2730441566
34
energy=-58327.4697416856 config_type=IL_pair name=EMIM-NTf2 Properties=species:S:1:pos:R:3:forces:R:3
C -2.5389737738 0.4404551656 0.7697294898 -1.0600472522 0.8165683536 2.2438124667
C -1.9514541132 0.0622561670 -0.5705350329 -1.2948873049 0.0514288189 -0.9298022441
N -0.5636379890 -0.2659477087 -0.3397520540 -0.7002852154 -0.2486055711 -0.6000317316
C -0.0565149845 -1.4928532696 -0.0363314026 1.6953560003 -2.6321297503 0.6248552020
C 1.3209351946 -1.3264704425 0.0952851081 -1.6179005876 -2.1707770036 0.2638918208
N 1.6141132189 -0.0134695373 -0.1295711171 0.7325237131 -0.1990895213 -0.0337848414
C 2.9186026953 0.6243020858 -0.0999667574 0.8189210985 1.8756064765 1.4819062468
C 0.4494778593 0.6261811571 -0.3952973035 -0.3038869871 3.9292024027 -1.0298986342
H -3.2839331129 1.2508448370 0.6487394551 0.2721642030 -0.1053722457 0.1918893126
H -1.7365444667 0.7477889572 1.5024728674 -0.8233927435 0.0032951585 -0.8699175539
H -3.0604423895 -0.4089948553 1.2224274213 -0.1028149435 -0.2318859089 0.1163956909
H -2.0043030793 0.9083790085 -1.2624009346 0.1331555388 0.2960181921 -0.4221381180
H -2.4530331687 -0.8049581796 -1.0436594215 0.0395245904 0.0190828868 0.0402537220
H -0.6249107083 -2.4288335114 0.0810450362 -0.1126225761 0.3997038007 -0.1255191352
H 2.0264499819 -2.0897085810 0.3306545434 1.1644587092 -0.7548294883 0.2359403619
H 2.8910580719 1.4597753974 -0.8174392982 0.4550711138 -0.2246661250 -0.4528337829
H 3.7364907735 -0.0954438087 -0.2435190978 0.0217882498 -0.0707060887 -0.3123338520
H 2.9979304297 1.1097555449 0.9109471530 0.4430491211 -0.3558527115 -0.4030398191
H 0.3186895608 1.6969415737 -0.6228286547 0.1906681747 -0.3764274465 0.0755886064
O 0.9039176409 -3.9183812798 -2.8371243371 -0.4888312737 -7.5526820374 3.1608272215
S 0.6977267942 -2.5627882393 -3.4219116117 4.2425504939 -1.3589402383 -2.7195372265
O 0.9990234649 -1.5454644049 -2.3822523289 1.2294263899 7.1281180440 5.9147982635
N 1.6989591028 -2.3927893352 -4.8299779224 -1.6217072610 3.2708466147 -4.1131505083
S 3.1834585948 -3.2552574150 -4.5655839282 -3.9086389515 -1.4303749562 -1.9656150495
O 3.5102686906 -4.1048953762 -5.7856636877 1.5221761605 -2.3167581563 -5.6672254957
O 3.1197058746 -4.1842238667 -3.4087099708 0.6948711166 -4.6507411462 7.4839394916
C 4.4397078786 -2.0086770929 -4.3526385649 2.9404534174 3.8402485608 -0.3420282788
F 4.4385557092 -1.2753073666 -5.5393081400 0.4703393377 0.9833811636 -0.3235970405
F 5.6758654994 -2.5861003234 -4.1764260616 1.3350518451 -0.1004381369 0.4349266583
F 4.0701878610 -1.2297541510 -3.2752418988 0.3633890531 1.2103731168 1.0190887004
C -0.9932056937 -2.4103485691 -4.0132703365 -3.8320493678 -0.7434191189 -2.8206822320
F -1.1837860759 -3.4359378631 -4.9351190891 -0.4824244414 -0.6123317345 -0.6113029891
F -1.1970007684 -1.2237494589 -4.6356334463 -0.9583672131 2.1971797261 -0.8826415099
F -1.8525369247 -2.6088107803 -2.9634582912 -1.4622559040 0.1246359246 1.3414154702
34
energy=-58328.1819616452 config_type=IL_pair name=EMIM-NTf2 Properties=species:S:1:pos:R:3:forces:R:3
C -2.5295007440 0.8528638745 -0.3131763248 0.3058452226 1.4492566796 0.1124307330
C -1.8721718420 -0.4635646399 -0.7481370536 -1.4369916798 0.5174787361 -0.7003966429
N -0.5442104888 -0.4313409696 -0.1220125201 -1.3823168549 -1.2520537140 -2.9893037890
C -0.2585884628 -0.9148376116 1.1009828582 -0.1903307662 -0.0936527325 3.7890850393
C 1.0869217434 -0.6905381409 1.3102109398 -0.3909890152 -2.4512049168 2.3774195327
N 1.5759252382 -0.0767390458 0.2050552931 1.1373595197 -0.0438850685 -0.3180462924
C 2.9492273036 0.3424785752 -0.0037504442 1.4905366724 1.4493795625 -1.1234102242
C 0.5701505210 0.0814461971 -0.6744231165 0.4780456814 1.4984277895 -1.9369333072
H -2.0373635411 1.6378011386 -0.9254386025 -0.8778036541 0.0611983944 0.1579379027
H -2.2632692046 1.0689983722 0.7561218558 0.0042032598 -0.8390738680 -0.3104884664
H -3.6167097522 0.8222977187 -0.3744096580 -0.3391279803 0.1576710018 -0.5923160101
H -2.4637630463 -1.3293606392 -0.4065455321 0.3717936048 -0.3289875879 0.1042577283
H -1.7555609824 -0.4807148021 -1.8512795383 0.0848124894 -0.3420148180 0.1540793895
H -0.9890869559 -1.3779723378 1.7449027665 -0.2626058590 -1.0475738023 0.0560507487
H 1.6176100988 -0.9703362826 2.2099701758 0.6941486845 -0.2768077567 -0.2186061631
H 3.1382776942 0.3181956280 -1.0946848238 0.1390576924 -0.0295237310 0.1156821084
H 3.0593132361 1.4042665501 0.3279556475 0.1812819846 -0.4774752693 0.1509393760
H 3.6538597494 -0.3341439408 0.4961430082 0.0485804161 -0.0557492910 0.3267249881
H 0.6789394351 0.5412003560 -1.6374849310 -0.0833479339 0.3846369528 -0.9209855464
O -0.0478033850 2.2508923993 1.1092901441 3.1550055268 2.1941451021 -4.9868570896
S -0.6745943582 1.8425735378 2.4364528212 -1.4887439003 6.0144942992 -0.3661503308
O -1.3378064616 0.5373708547 2.1918177303 -4.9541954174 -8.9834315113 -0.1771567578
N -1.7207607383 3.0847765528 2.9700696443 1.3701695383 3.9638989291 -1.8287547939
S -3.0227937554 2.5574257332 3.9298043555 2.4872981233 2.0675178873 1.7698669323
O -3.5862688134 3.7809609911 4.6402911464 -2.4862083680 5.4794015459 1.6520921626
O -2.6524083845 1.5856863428 5.0030059448 2.2057723965 -6.2045306077 4.6978576099
C -4.3444687268 1.9263381082 2.9182246680 -4.2413792344 -1.7527005344 -3.5318292264
F -3.9173162348 0.8617998141 2.1607436191 0.1085769280 -1.6407867141 -0.8394048836
F -4.7919084171 2.9023033722 2.0586757016 -0.5290152806 1.2935613907 -1.2508931099
F -5.4327191853 1.5610229594 3.6853743513 -0.8871020236 -0.6680968453 0.8546703363
C 0.6932674203 1.6544626774 3.5846853974 3.6083512292 -0.2485885588 3.8170344114
F 1.4135224216 2.8286746956 3.6762737282 0.7824892602 0.8581324858 -0.1248192397
F 0.2508679470 1.3285723616 4.8370464791 -0.4289493928 -0.5092049945 1.7031155302
F 1.5135867568 0.6317027161 3.1333699274 1.3234528791 -0.1443288736 0.3638957134
34
energy=-58294.1233250325 config_type=IL_pair name=EMIM-NTf2 Properties=species:S:1:pos:R:3:forces:R:3
C 2.7328388040 0.2764229464 -0.6336162685 3.0189994165 0.9319144991 -0.7437338293
C 1.8073655210 0.6415558977 0.5149435058 0.4347004828 2.1270740238 -0.0329889663
N 0.4721894994 0.0904559415 0.3485731925 4.0417117312 0.0069643541 1.0229421790
C 0.1063023718 -1.1190580503 0.8126219439 5.3817676471 13.2419068709 4.8555919603
C -1.2225325519 -1.2891182430 0.4648477298 -36.5020285073 32.7617895036 17.6153307522
N -1.6510691802 -0.1900847647 -0.2028710391 -3.6405054230 1.1595540407 -1.5281531667
C -2.9617715162 0.0589975136 -0.7465962628 -1.7359823485 2.0705276388 -1.0683613600
C -0.5975107363 0.6457246651 -0.2646471291 -0.6314698014 6.3607722434 -3.6002888774
H 2.1948689559 -0.0505067744 -1.5289906410 -0.0767342239 -0.3583380445 -0.0043942696
H 3.3300397428 1.1852584086 -0.9266304329 -0.5569385488 -0.6771153889 0.1074990954
H 3.5042710826 -0.4455322850 -0.2898522355 -0.5921615371 -0.2201261266 -0.5390260441
H 1.7092101186 1.7515622715 0.5350265581 -0.3111956489 -0.3080670844 0.0081677310
H 2.2349435879 0.3742831918 1.5018587192 -0.2392983309 -0.3774695207 -0.1574111892
H 0.7397992017 -1.7995316216 1.3450798882 -4.7212104809 8.3733438188 1.0983239637
H -1.8279279970 -2.1732252409 0.6947791633 -5.7386219933 1.6861738306 3.4256245328
H -3.5541564490 -0.8662667738 -0.8111189699 0.1490591225 0.1999213990 -0.2893061369
H -3.4700276056 0.7666383455 -0.0393697499 -0.1692328510 -0.2678619781 -0.5966413702
H -2.9181574510 0.5277471460 -1.7486691255 0.0659047771 0.1362405890 -0.0515526373
H -0.6286753986 1.6146774260 -0.7412498271 0.1673226903 0.2430768953 -0.0587681959
O -3.2205041671 -4.7862998839 2.8561633385 -3.1904788749 -3.6739357886 5.7855789318
S -2.5698690162 -3.8464335521 1.8911101183 2.8891473685 -2.7085020880 0.5797055671
O -2.4572492480 -4.5287554736 0.5585343563 0.4094071597 -2.2574137181 -7.2586419518
N -1.0065362223 -3.3587604990 2.4340600021 2.0702975468 1.4164085714 5.9652808400
S -0.0063126170 -3.1290291485 1.0651446580 0.3045263164 -24.2434755105 12.0147237642
O -0.5720068045 -2.0407088967 0.2184059690 34.2358429808 -29.3043063942 -43.6751177094
O 0.0658067166 -4.4111558869 0.3064434446 1.0585074359 -6.1029312805 -3.9588811283
C 1.6423426145 -2.6595306692 1.5021871421 12.8061194367 -4.7143656475 3.1952437338
F 1.6583877390 -1.4642026560 2.2202867467 4.7240894909 0.5445212007 5.4274017532
F 2.3585616317 -3.6460449569 2.1082516803 1.6276466967 -1.0066074559 1.2659030975
F 2.3018531656 -2.3414335464 0.3065866847 0.4256256355 -0.1827964747 -1.0002075175
C -3.6266658622 -2.4242207896 1.6803491313 -4.5714948265 4.1625235516 2.1263344539
F -3.7591742159 -1.7517631656 2.9010826804 0.0595884482 0.7383397129 0.1014234352
F -3.0841094296 -1.6200010382 0.7174296060 -10.0821499862 0.4580860250 0.7201153646
F -4.8881141720 -2.8556957292 1.3313858368 -1.1193754471 -0.2232500958 -0.7413990706
34
energy=-58271.7210604401 config_type=IL_pair name=EMIM-NTf2 Properties=species:S:1:pos:R:3:forces:R:3
C -2.6485564146 -0.4142094732 0.5320509243 -2.4506996531 -14.0319420275 -3.9687546548
C -1.9242408797 0.1165835876 -0.6721012407 -1.3126187088 0.7645215598 -0.7970839334
N -0.5295821158 0.3447855633 -0.3043158533 -3.7100783142 0.3565758324 -2.0868523294
C 0.0217756829 1.4617620464 0.1958816791 -9.9664346667 -48.4633904968 -13.6456600170
C 1.3811148552 1.2073803835 0.3895894394 15.0052563684 -11.2246429248 -3.6707582628
N 1.6121887598 -0.0671016108 -0.0029424747 1.9139039115 0.0624798118 1.0496667623
C 2.8712782263 -0.7899445619 0.0081477942 2.3756783782 0.3711506608 -0.9723045698
C 0.4327149071 -0.5902865595 -0.4280780930 0.7724676723 -6.4989199316 -1.9733669963
H -2.8605464471 0.4120423098 1.2172536741 -8.1587775158 -8.4841184887 2.2621219583
H -2.0084934764 -1.2015647946 0.9865601053 -0.3924401942 0.0102289064 -0.3606435755
H -3.6024117001 -0.9036046951 0.2045417428 0.5880205872 -0.2471986634 -0.1754601408
H -2.0250755117 -0.5827277150 -1.5083458693 0.6320971043 -0.0875352258 -0.8666895231
H -2.3161849819 1.1266231604 -0.9450277120 -0.0307300097 -0.6393335137 -0.4865066681
H -0.4886797730 2.3939836632 0.4122379645 -59.9225055271 -19.8056557678 -11.9828918134
H 2.1253711623 1.9110599549 0.7869311051 1.9526021984 -1.1819909759 0.5340463278
H 3.7040317181 -0.0360259829 0.0361022032 -0.5144372432 -0.4878018751 0.3165381896
H 2.9589276761 -1.4693132205 0.8679520894 0.0018613647 -0.3326588693 0.0803761972
H 3.0059383376 -1.3115747987 -0.9672443095 -0.1965115432 -0.2958707400 0.5007449971
H 0.2904299749 -1.6078672571 -0.8091931689 0.0755320165 0.4126526592 0.1213258768
O 0.2504943097 1.5746809139 1.5032071548 -5.2275059574 -7.8791824605 32.8458608596
S 0.2863948839 2.7216724623 0.5531695847 51.6732306776 78.6419239727 20.7122420301
O 0.8705933781 2.2319288949 -0.7211136963 11.5308489724 7.5275924263 -26.3256330637
N -1.3110958681 3.3462267702 0.2235697282 -2.6973612699 7.3493089474 -4.7481076552
S -2.3459354254 2.6630113766 1.3974650782 1.4689506580 6.1727078065 2.9034603900
O -2.3514809631 1.1747147672 1.2011336248 7.3273387850 8.6609712668 1.2381459919
O -1.6936532811 2.9153165804 2.7367239780 2.5915866440 2.2820466517 6.4336498593
C -3.9675446411 3.3375678297 1.4174882427 -5.5579306537 2.4295192754 -0.6758599472
F -4.5840114030 3.1458085774 0.1927808724 -0.5898650212 0.3526356367 -1.1528729677
F -3.8791172163 4.6767909568 1.7430712716 -0.4833757603 1.1529053059 0.2247487840
F -4.7109743243 2.6425530442 2.3341398403 -1.1868730221 -0.5585659245 1.5722148805
C 1.2693916937 4.0107185232 1.2616892579 2.2359271499 2.0292759762 2.8387479960
F 1.3519185078 5.0601336667 0.3758873728 0.2519776233 0.8845094121 -0.4296141433
F 2.5175157440 3.4889809037 1.5508632248 2.1764780389 0.0514649881 0.2972053312
F 0.6616351612 4.3889987370 2.4541018720 -0.1700162210 0.7097631235 0.3937901233
34
energy=-58328.1768378360 config_type=IL_pair name=EMIM-NTf2 Properties=species:S:1:pos:R:3:forces:R:3
C -2.6650458630 0.7233210467 -0.1782161955 -1.6109345489 1.3109770606 -2.4936928980
C -1.8954453838 -0.5756443080 -0.3367889407 -3.0896168742 -1.0335413257 -0.0325382827
N -0.5259859398 -0.4349681492 0.0975754471 -0.4545776887 -0.4610115418 -0.8425158745
C -0.0245747341 -0.6420867899 1.3307440279 0.8340030182 -1.1480861056 3.2225615006
C 1.3458891932 -0.3839568380 1.2779651139 -0.6160506947 -0.5850676957 3.9375114522
N 1.6143380246 -0.0284086302 0.0009105400 2.4098565536 0.1140776386 -0.6594814676
C 2.9303579678 0.3321491068 -0.5177611021 1.8651465847 1.2841598562 -0.4086273972
C 0.4750802810 -0.0612978964 -0.7098284554 -0.1504833067 1.1618785346 -4.3075053827
H -3.7541426991 0.4807796941 -0.2785983549 0.7204378982 0.2234317170 0.2942508115
H -2.4315576602 1.4236042128 -1.0187476435 0.0135783431 -0.3977031286 0.5377538876
H -2.4654346995 1.2276800751 0.7649926599 -0.0278423288 0.1445966570 1.8090960734
H -1.9550199201 -0.8956240506 -1.4003935761 0.4119156577 -0.3636606014 0.3656439579
H -2.3991475552 -1.3141483502 0.3420276230 0.5974530766 -0.0088485823 -0.5916522035
H -0.5914453054 -0.9549930822 2.2086715037 -0.3915157122 -0.0082673435 -0.0834657592
H 2.0541868336 -0.4589331812 2.1162079366 0.1543910870 -0.1132927642 -0.5594806825
H 3.7392842246 -0.1335623013 0.0820945377 -0.3701358870 -0.2638651197 -0.1505406776
H 3.0770234181 1.4298736332 -0.4201895010 -0.1403357167 -0.0442697573 -0.0500516057
H 3.0395765471 0.0793086719 -1.5879424331 -0.1687516993 -0.2599209092 0.1147046470
H 0.4320632699 0.1869071366 -1.7727231874 -0.2910506238 -0.0380408266 -0.0175078141
O 0.6256172100 1.0842984619 2.8397332526 1.0041910993 -7.9921091737 0.6299918097
S 0.5612919019 2.5931431902 2.9094239315 -5.1278900469 0.3023077246 -0.7164588109
O 0.6863425260 3.1200533987 1.5268868849 1.2574294570 3.6120518864 -7.5955063594
N -0.8663502230 3.0574230286 3.7125297958 0.5957725727 3.3078144909 6.6217072724
S -2.2914914689 2.7541788281 2.8376011789 4.0951392754 -1.1716907157 -0.7169204778
O -2.3807509123 3.4237655809 1.5176358387 -0.8251577802 4.7447968080 -7.1839285843
O -2.4212198492 1.2693542276 2.6096995305 -1.0141192946 -7.4121067452 -0.7725211945
C -3.6774670504 3.2319681968 3.8749694971 -3.8726401434 1.8005612849 4.0253230815
F -4.8774537302 3.0011836989 3.1977972990 -0.3017034748 0.0925195301 -0.3082417065
F -3.5799153492 4.5582022914 4.2526081514 -0.3222652917 1.2506823471 0.1137790412
F -3.6903190320 2.4851331742 5.0368882253 -0.1853402079 -0.8436330996 1.0182513925
C 1.9440859826 3.1637053431 3.8832046578 3.8594740498 2.0201827493 4.1141841585
F 1.9228987472 2.6089807120 5.1452507993 0.0798789424 -0.7360536253 1.3900083408
F 1.8354341920 4.5284217344 4.0456837626 0.4596525123 1.4131674906 -0.1204338354
F 3.1567410111 2.8021860228 3.3031605811 0.5966892988 0.0900351466 -0.5877072836
34
energy=-58324.5040170528 config_type=IL_pair name=EMIM-NTf2 Properties=species:S:1:pos:R:3:forces:R:3
C 2.6891157156 0.2763597285 -0.5820389048 1.9541653968 1.8457789057 -1.3103725187
C 1.9027632766 -0.0071901754 0.6694701624 0.9994695998 -1.3155210126 2.1195654047
N 0.4881536001 -0.2623212659 0.3573034902 2.5323201249 0.2466816051 1.2627642432
C -0.0696840869 -1.4581467260 0.0819330761 2.3047840526 -1.7071227366 5.5253271153
C -1.4107848395 -1.2166520934 -0.1467968221 -0.6110965814 -2.3731915574 3.2182976366
N -1.5856057662 0.1186849254 0.0046669226 -3.5456649239 0.3506952306 -0.0193544024
C -2.9009926279 0.7291272855 -0.1677446904 -1.4468173864 2.7175270732 0.2915064645
C -0.4166908307 0.7093847281 0.3154196876 0.2919516947 3.1171043738 0.3704765485
H 2.9781684601 1.3614438035 -0.5208782860 -0.2529819837 -0.8078184202 -0.7973826230
H 2.1293512010 0.0535476337 -1.5130286596 0.1447979625 0.1924979855 0.3455415239
H 3.6398337537 -0.2909388552 -0.5933146773 -0.3189204386 0.0145087411 -0.0369723742
H 2.3384617575 -0.9133284176 1.1643027063 -0.6484332107 0.2661547700 -0.1044843398
H 1.9516101614 0.8056395757 1.4252619814 -0.0800368593 -0.0152102687 -0.3257610553
H 0.4531094279 -2.4057106484 0.0524521147 0.1890911399 -0.0290908814 0.1832683175
H -2.1437747291 -1.9744187851 -0.3955042069 -1.8774909234 -0.2774358253 1.1588816308
H -3.3470285443 0.4425909820 -1.1401725385 -0.1990868035 -1.1281485959 -0.5335895124
H -2.8237451903 1.8452039582 -0.1462347814 0.3020775683 -0.6102411659 0.1483042246
H -3.5776212115 0.4292879891 0.6499267914 0.0284709282 -0.1870252134 0.0676091192
H -0.2946395275 1.7574363573 0.4849766344 0.3110346127 0.9460997592 0.2472896416
O -4.2443041909 -1.7616805237 -4.4068183678 -1.5338664515 1.1307477464 -5.5042276721
S -4.1849415858 -2.1451885680 -2.9344820524 4.9082509725 0.8085518106 -2.7785295764
O -3.7213977346 -0.9742915765 -2.0911215748 1.6600197205 4.9130206438 4.4596424899
N -3.0687511011 -3.4727983948 -2.6955727032 -1.4628846180 -4.7045082263 4.0255190974
S -1.5801158538 -3.1082330258 -3.4454459308 -5.2469617178 -1.0987893381 -2.5337184729
O -1.8062608310 -2.0018729046 -4.4397152010 -0.0960788697 6.3331740270 -3.9279825769
O -1.0300161411 -4.2632734152 -4.2317939181 3.2495694850 -6.5395281596 -2.3264432433
C -0.3884667254 -2.5003944153 -2.2531388771 4.1102913636 -0.1940311513 1.5529193888
F -0.1183675510 -3.3934004273 -1.2631008983 0.9004667136 -2.2281831805 1.0414336615
F -0.9632051388 -1.3774116313 -1.6780954836 -1.2858046859 3.3232615090 -8.5393871732
F 0.7454811545 -2.0597955606 -2.8925082015 1.3239773669 0.3338729317 -0.0094838707
C -5.7736807237 -2.7300422638 -2.3910730703 -4.2072472525 -2.3397097497 1.1474372101
F -6.7107602962 -1.7313122256 -2.5502874101 -1.0006976603 0.8644462874 0.3379156519
F -5.6538463918 -3.1464610045 -1.0917115456 -0.6395857109 -0.5293684436 1.7897117035
F -6.1245822727 -3.7755058574 -3.2140302045 -0.7627653890 -1.3459320044 -0.5502416809
34
energy=-58310.8485426794 config_type=IL_pair name=EMIM-NTf2 Properties=species:S:1:pos:R:3:forces:R:3
C -2.6143157396 0.1081149516 0.6637103271 -1.0721705496 -0.2830791310 1.9348423139
C -1.8887413158 0.4698942431 -0.6284273256 -4.6624912441 -0.6441210733 1.6075465552
N -0.5254014592 -0.0242251812 -0.4916203453 -5.2180565671 -9.7697595711 20.8444196287
C -0.0377066345 -1.2347934181 -0.8377597874 0.4318832665 -6.2400501936 1.6388711362
C 1.3057553615 -1.2296523578 -0.5148915914 -1.3041184949 -5.6911478437 0.7095321722
N 1.6143277967 -0.0216590305 0.0204508337 -2.7995955342 -0.3084890205 3.9016048229
C 2.9091749940 0.4182003713 0.4977562077 2.5156749008 1.0222254762 6.7267204187
C 0.4876193337 0.7151771060 0.0329151641 2.3150291177 2.7679521832 10.5860900058
H -1.8771910848 -0.0020904451 1.4949999888 -0.3978720900 0.0250221383 -0.4759086125
H -3.1889314633 -0.8334159630 0.5733919753 0.2755245284 0.1844393115 0.0134755352
H -3.3190188840 0.9007722616 0.9603338761 -0.0513104148 -0.0355322546 -0.0917503429
H -1.8633959964 1.5535682736 -0.7372278253 -0.0660239858 0.5535256354 -0.3821510279
H -2.3904326608 -0.0660131888 -1.4654381990 0.3341864297 0.5906362110 -0.0929895243
H -0.6139069368 -2.0485149499 -1.2864064023 -0.1722652252 0.4093673852 0.1407769769
H 2.0104166167 -2.0504085881 -0.6601965277 0.0430381229 0.1265165495 0.2708426141
H 2.9265400093 1.5253612310 0.5107667150 0.2686273922 -0.1658039515 -0.3602199783
H 3.7125368914 -0.0351404986 -0.1068708549 0.7499471483 -0.0683473506 1.7066159057
H 2.9566560405 0.1109676909 1.5703653210 0.1945200481 0.1563343257 0.3683583080
H 0.3960151312 1.7438574920 0.4041484501 -0.1195861569 -0.8966581007 0.2736134492
O 4.2971157470 -0.7265958050 -3.6191754030 -0.4520218873 -6.9749690035 2.2163825785
S 4.5762245328 0.7433882663 -3.8081475233 -4.0424023139 -0.6589870291 -1.2491196954
O 4.6944790743 0.9586611390 -5.2918505195 1.1943717807 2.4652781607 -6.9230638206
N 3.2990058232 1.7387996473 -3.2063592883 -1.0391726816 6.4839922295 0.9721366895
S 2.1212510982 0.6815448602 -2.5260497437 4.2949468577 1.4819051208 -7.4342075866
O 1.9189594762 -0.4140385216 -3.5341574321 -2.5835190241 -5.1289865249 -4.7082992426
O 2.6902996641 0.0723086572 -1.2778577095 6.8276107591 -1.1692544795 -2.5724593529
C 0.5774373072 1.4871652309 -2.2054302613 -1.8980531427 6.6713291889 -2.5614705217
F -0.2610563849 0.5144807041 -1.6633279749 0.4316857645 9.3733527782 -30.1161616317
F 0.6860515112 2.5245530889 -1.3380593588 -0.2396779990 3.0529586710 0.0672186320
F -0.0091214751 1.8806253028 -3.3924195087 -0.2829007825 0.6316832786 -0.8662049023
C 6.1286750657 1.0854522384 -3.0108115699 4.6819464409 2.2869449009 2.0051692446
F 7.0768495327 0.2565092242 -3.5462169876 1.3677922789 -1.2448537940 -0.7573083944
F 6.5391078160 2.3914415072 -3.2748875459 0.3450231523 0.8802474043 0.4587494378
F 6.0378000964 0.8052464721 -1.6763475823 0.1122503057 0.1227437930 2.1466622401
34
energy=-58324.6386480220 config_type=IL_pair name=EMIM-NTf2 Properties=species:S:1:pos:R:3:forces:R:3
C 2.6397617903 -0.4197064680 0.4621835913 1.1810213230 -0.4508337666 1.2805686487
C 1.8324726243 -0.3573961174 -0.8289796212 -0.4930838293 -0.4819684050 6.0974164754
N 0.5247224636 0.1559967627 -0.4851745649 0.8076137564 -4.2535326060 2.6915237882
C 0.0905712685 1.4309266210 -0.4466939441 -2.3993487856 2.9859671222 -0.2499408724
C -1.2521057453 1.3782327464 -0.0539894639 0.6613655821 5.0406435581 0.2409185374
N -1.6010167591 0.0821297162 0.1359031177 -1.6633539629 -0.8664063817 -0.2775303105
C -2.9211152030 -0.4145292700 0.5524694157 -0.0881888703 -1.6967924095 1.1190617525
C -0.5016077927 -0.6328722535 -0.1337176720 -0.3106673763 -4.4646287794 0.5274637201
H 3.6069263412 0.1048238863 0.3233186645 -0.0576399052 -0.4178449412 0.1099340983
H 2.8214013325 -1.4908914491 0.6975505116 0.1609026429 0.5946231110 0.5267191241
H 2.1200516846 0.1061704043 1.2938452757 0.2176809889 -0.5286289303 -0.2061911883
H 2.3342466858 0.2944386407 -1.5675470927 -0.0797359981 -0.2694882473 -0.2408230687
H 1.7155718058 -1.3507787637 -1.3118232998 -0.1031395994 0.4660370653 0.5606877965
H 0.6664591112 2.2988120930 -0.6730292530 1.0681487891 1.4439720056 1.2350159353
H -1.8940067020 2.2499317150 0.0723150225 -0.2931750305 -0.3249593009 0.1469324784
H -3.1007189094 -1.4345869394 0.1502225056 0.1720075082 0.2716622742 -0.1663519516
H -2.8730019407 -0.5276271064 1.6625808362 -0.5725782280 0.3266976159 -0.2767886019
H -3.7222283368 0.2438434476 0.2144394427 -0.2360677114 0.5297832606 0.0243616184
H -0.4863837188 -1.7169176657 -0.0638734718 0.2581085564 -0.3497446937 -0.0232949425
O 3.6396236846 1.7347349338 -3.8166480675 1.1361199982 6.2467280057 1.0129687843
S 3.6269398255 0.2189444062 -3.8474716084 -3.0940942208 2.6300519608 -2.6281814244
O 3.3526653313 -0.3080116508 -5.2221306759 -0.5668356232 -3.4810957001 -6.7858327446
N 2.3165348955 -0.2769240820 -2.8368542297 1.4186211680 -3.6631141753 -1.2713956836
S 0.9126766544 0.5828767206 -3.3352998284 4.3416878842 -0.2889313468 -1.9055672862
O 0.3641381455 1.4223501845 -2.2193555575 -3.6505259840 5.8533467378 2.6327733946
O 1.2276555888 1.4740674735 -4.5002849827 0.8691643867 3.9781390015 -5.9901435381
C -0.3079972759 -0.5838741284 -3.9213380854 -1.8962139043 -3.7735776051 -1.9115783381
F 0.3109258783 -1.2414772434 -4.9923578149 -0.5290082044 -0.3822330999 -0.3353181485
F -0.5496306391 -1.4716769183 -2.8991032831 -1.1207828775 -1.3322684825 0.7289585624
F -1.4132211993 0.1180005532 -4.3285449055 -1.3498253383 0.0377119181 -0.3780424336
C 5.1600525731 -0.3999366665 -3.1935843496 4.1298280266 -3.1605481925 2.8476012320
F 5.3088166609 0.1240755926 -1.9224036309 0.8194606205 0.5439328958 1.0558869653
F 6.2214040872 -0.1061357163 -4.0202505753 0.9085426969 0.4175194058 -0.3365030813
F 5.0497602132 -1.7809749786 -3.0792889724 0.3736999454 -1.1690038620 0.1579381627
34
energy=-58320.6739662178 config_type=IL_pair name=EMIM-NTf2 Properties=species:S:1:pos:R:3:forces:R:3
C -2.6895190729 0.3917173180 -0.0801267403 -1.7188327004 1.4434605953 0.5551332372
C -1.8054898435 -0.6619360904 -0.6822812388 -1.1824490789 -0.5514208773 -2.6003647954
N -0.4876101086 -0.5266506116 -0.0878428441 2.1220809593 1.0704124516 -1.8224704606
C 0.0272856813 -1.0958707425 1.0082544569 6.6344457164 9.7472977304 -7.2480184930
C 1.3163823997 -0.6575627906 1.1649420690 -1.4308820852 -2.1664722761 2.0760952928
N 1.5937566783 0.1894822275 0.1534220093 1.1081007826 1.3066822308 -1.3110392655
C 2.8342778733 0.9125321433 -0.1140939271 1.5046673437 0.7880596115 -1.7093157233
C 0.4803462343 0.2564687815 -0.6006130120 -0.1525181799 2.6820399154 -3.8547342518
H -2.0876916664 1.3233944230 0.0399296503 -0.5347672677 -0.3511456738 0.1459453862
H -3.0618073467 0.0008593064 0.8978840121 -0.1642131424 0.5330914134 -0.5179391336
H -3.5431964066 0.6103838235 -0.7818411320 0.5456254695 -0.2625696828 0.8947254299
H -2.2041954095 -1.6847649758 -0.5655443003 -0.0805390146 -0.4351570826 0.6762850345
H -1.7369682658 -0.4805309664 -1.7820942230 0.4353305830 -0.1195975181 0.3761972049
H -0.5013463254 -1.7809767000 1.6457206273 0.8082732459 15.9848772668 -17.9771640476
H 1.9836638329 -0.9377879683 1.9502474422 1.0267900553 0.0302265232 0.6262086704
H 3.2034032338 0.6980821515 -1.1472228390 -0.2967797893 -0.1501625516 0.3206035703
H 2.6420914734 1.9999125581 -0.0966276637 0.2202908922 0.0856307378 0.5293048895
H 3.6271181001 0.5757200402 0.5689941181 -0.1377305401 0.2544840317 0.4338535343
H 0.4094989384 0.8675280723 -1.4911064646 0.0241702174 0.3547160143 -0.5845808413
O -1.4111766467 -4.3984130505 3.1919823887 -0.8350692919 -3.3411843642 5.5031962336
S -1.1284561369 -3.6781168989 1.8979668707 -6.8153282540 -3.1170100795 0.8789523564
O -0.6097796377 -2.3034425844 2.1959875689 -4.5746571722 -21.0639328829 31.6729986927
N -2.4734685442 -3.6742081916 0.8358813630 2.2736247870 -2.1438820436 -5.5249257398
S -3.9023311569 -3.0827781317 1.5328125542 2.3133270297 1.8254856147 -0.9292941935
O -4.3742047694 -1.9166086027 0.6820019924 -1.9989823646 4.1636867921 -4.3920969853
O -3.7991956304 -2.6236804709 2.9369547581 0.7612678257 1.7050062074 8.5619403685
C -5.1618608486 -4.3560983580 1.3808050786 -3.9075224308 -3.1695062590 -0.9177836363
F -6.3142772273 -3.8208640338 1.9678522884 -0.5053358311 -0.1334530817 0.2802836087
F -5.4223233170 -4.6058925581 0.0465468296 -0.4181306074 -0.3075300548 -1.1631741156
F -4.8042018074 -5.5241391769 1.9810175169 0.2158604479 -1.7657687876 1.0164595834
C 0.1608714743 -4.6179452714 1.0707580356 3.4179038021 -3.2196015002 -2.2964091435
F 0.4645950829 -4.0108668726 -0.1090181502 1.1850168255 0.9192134157 -1.7258272292
F -0.2839383381 -5.8944385893 0.7867410863 -0.6391474649 -1.0262977394 -0.1990314461
F 1.2502969738 -4.7835018970 1.9186433053 0.7947746799 0.4258456024 0.2343109215
34
energy=-58286.7380612007 config_type=IL_pair name=EMIM-NTf2 Properties=species:S:1:pos:R:3:forces:R:3
C -2.6617627147 0.5953702621 -0.2312611626 -0.6607683984 -0.2331589080 -2.1672082402
C -1.9100385785 -0.2465283816 0.7764044911 -1.1865339077 1.2258756710 1.3427608634
N -0.5243554383 -0.3281960336 0.2992630739 -4.0949284856 0.7192460609 2.2866345071
C -0.0935001917 -1.2999616020 -0.5239921495 3.0140949808 -2.5293117803 -3.7935720743
C 1.2459144093 -1.0423569242 -0.7452204113 -1.0033118924 -7.7699593556 -4.1658614086
N 1.6102211469 0.0661144279 -0.0648602965 6.7502415415 -41.3984598049 -2.6052284566
C 2.9423598054 0.6338572966 -0.0627025824 24.1709726263 -11.7422199779 -8.6345851117
C 0.4985490226 0.4940535165 0.5764042681 -15.2014704689 -5.3185292921 0.9190464905
H -3.7376108910 0.6827751374 0.0134428996 0.3017455695 0.2593928491 -0.1005189455
H -2.1496659335 1.5717278154 -0.3265378732 -0.5525392420 -0.0128312131 0.1030770891
H -2.5401793105 0.0645424954 -1.2171103291 -0.5038898398 0.6751611633 0.5827517422
H -2.3691261484 -1.2280264039 0.9271716142 0.1443444296 -0.5889789000 -0.1442694190
H -1.9235505172 0.3020156614 1.7469952405 0.2785706946 -0.5123831179 -0.1701517046
H -0.6707940809 -2.1124908257 -0.9289078362 -0.7078361534 -0.2799847068 -0.1018659181
H 1.8751570649 -1.6737508263 -1.3857344358 0.2176187526 0.2813547064 0.0978363369
H 3.4360826555 0.5616261457 -1.0561298183 -0.8884498654 0.6107484345 -0.2465878575
H 3.5526044048 -0.0360090690 0.6107801393 1.3965018204 0.7741517094 -1.7358885441
H 2.9517031381 1.6325880079 0.3868966805 9.8322940078 1.9657333170 -5.6299537163
H 0.4679921570 1.3626493000 1.2050984878 -3.9132946297 -3.6820037799 -6.1982465494
O 4.2556470838 4.2460487780 3.1736443679 -1.5391341721 4.3723883585 5.2551349174
S 4.3410019141 3.1185365508 2.1703127519 1.0375606752 4.1211891037 -1.5766433113
O 5.4897115659 3.4913874947 1.2391365122 4.4235515472 0.4211073708 -4.3463751092
N 2.9746761709 2.9579974651 1.1994966824 -3.4016760233 1.9365783867 -2.4466774177
S 2.0201103719 1.5838039442 1.3813225326 4.6453319916 18.8803498353 27.5362929747
O 2.6607279938 0.3946831842 1.9745386803 1.3305930135 -6.9683917058 8.3750713455
O 1.5518393339 1.1650584485 -0.0065816368 -19.2202226960 46.3919012351 -27.2570625399
C 0.5111840930 1.8851517047 2.3068776565 -1.7372784237 3.6685823317 10.4054138173
F -0.1409355848 0.6504352717 2.3548258489 -2.9898914025 -1.1352273930 8.0094759207
F 0.8024610332 2.2513721887 3.5873195069 -0.6368111214 1.1921650891 2.0655401659
F -0.2372522093 2.8073290352 1.6071497437 -1.5055655834 1.9258285247 -0.0104657284
C 4.8606697920 1.6889069491 3.0366805359 1.9507671137 -5.2118339532 5.0064673151
F 5.9998312103 2.0610018412 3.7666211506 0.7149759131 0.3359026742 0.0916520918
F 5.2276055681 0.6569731261 2.2266524786 0.2373211343 -1.6878253789 -0.9821890361
F 3.9458234889 1.3185103010 4.0277532695 -0.7136490483 -0.7023260365 0.2522273794
34
energy=-58326.0558654389 config_type=IL_pair name=EMIM-NTf2 Properties=species:S:1:pos:R:3:forces:R:3
C 2.7716845035 0.0636418843 -0.4405880535 2.5438299342 -0.4996557589 -2.1226241099
C 1.8776352176 0.0710101122 0.7789978634 3.6709182406 -0.5248045940 -0.5158109148
N 0.4806768611 -0.1249145239 0.4346276093 0.5539868599 0.3560074828 -0.0629972024
C -0.1248024468 -1.3235523196 0.3546560344 -1.7726914913 -4.5168246895 -0.1923231864
C -1.4476728288 -1.1577102478 0.0067131339 1.4342967077 -2.7658946153 0.6010088865
N -1.6258815207 0.1839966854 -0.1222384856 -2.2230921934 0.2428470623 -1.1550549549
C -2.9135334597 0.7828060254 -0.4881463982 -1.9672780850 0.9351436654 0.5783713356
C -0.4627977504 0.7853848012 0.1371988859 0.6591923827 3.6770952979 -0.4701605518
H 3.7825137546 -0.3746904960 -0.1934074914 -0.9529555017 0.4670256045 0.1134414726
H 2.9849151088 1.0904461344 -0.8055490543 -0.4090240264 -0.4099144388 -0.1544584419
H 2.3975011936 -0.5801555146 -1.2629459528 -0.1429236481 0.4215571758 0.1446277922
H 2.0224355998 1.0398056958 1.3149459819 -0.0259961325 -0.8668281491 -0.3636912178
H 2.2091806269 -0.7968778524 1.4014345865 -0.6127563898 0.6227839057 0.2033007241
H 0.3299650664 -2.2961011209 0.5312032421 0.5891240685 -0.0044719377 0.1989163774
H -2.1702841523 -1.9500890915 -0.1284088145 -0.7745976168 -0.0547924418 -0.1242143062
H -3.5330201217 0.0331736088 -1.0217994439 0.4574151504 0.1943072235 -0.2994720656
H -3.4881078553 0.9850268730 0.4613828078 0.2552295519 0.1452430239 -0.0700497395
H -2.7718512612 1.7225345550 -1.0660760849 -0.0163552047 -0.3926590511 0.1080959512
H -0.3185565354 1.8462647910 0.1079996338 0.2334257815 1.1400887997 0.1742928085
O -1.5704372608 2.4486052972 4.9445798675 -3.8715408333 8.1645471637 4.0793789155
S -1.0382608484 1.3395579377 4.1425800796 -1.9790698316 -4.4329743062 2.2229772639
O -0.3113757042 0.4060984910 5.1006776885 3.6522843815 -4.1730422635 2.9809621359
N -2.1087321424 0.4022492726 3.2548506039 2.0772855764 -2.0350415199 -5.0730930002
S -3.7520540538 0.5317595557 3.5544941320 2.9671419860 -3.0469877336 1.2587212072
O -4.1471108497 -0.0731397647 4.8724647933 -1.6436867187 -1.8005487384 6.9658850739
O -4.4240424558 -0.3187236680 2.4959063919 -2.5880844228 -3.0118129196 -6.1593783197
C -4.4645773595 2.1266051437 3.3510499831 -2.6548028167 5.9260625470 -0.5530448985
F -4.2960861631 2.5665191580 2.0564685823 0.4096119953 0.6403089009 -2.0817724513
F -5.8261325806 2.0134314572 3.5562843140 -1.5354431840 -0.1188074210 0.3389441496
F -3.9784752711 3.0892785886 4.1919686510 0.6017883278 1.4156523015 1.1759637130
C 0.2167969984 1.9493462737 3.0214142755 2.0874798457 1.6535585672 -4.7164598943
F 0.8966564551 0.8763515414 2.4301288524 -0.3444505827 0.8499874996 3.2079484613
F 1.0362094298 2.8729354885 3.5811482329 1.7519771528 0.8786413492 0.8184177643
F -0.4159274907 2.5910783618 1.9472014968 -0.4233129293 0.9179854925 -1.0560086330
34
energy=-58316.6748309949 config_type=IL_pair name=EMIM-NTf2 Properties=species:S:1:pos:R:3:forces:R:3
C -2.6505133191 0.7446877805 -0.3409583816 -0.8653025932 2.2056476808 0.0929607540
C -1.9551801492 -0.5192111682 0.1236615246 -2.5880466212 -2.0385046624 -0.8815671145
N -0.5263962687 -0.4054758734 0.0442881041 -2.5402771116 -5.8764661264 2.2579530613
C 0.2162324211 -0.7422818388 -1.0419405638 2.4063756627 -2.6172441845 -4.4518853499
C 1.5586698607 -0.5046075485 -0.7712437550 -3.6058893316 -6.8530658659 -3.4325080173
N 1.5904367315 -0.0248212503 0.4866274341 1.8512741302 -5.7969542292 9.1056398558
C 2.8075803418 0.3513274452 1.1561217207 -0.5143936685 -1.1890584703 2.9983227962
C 0.3460526403 0.0409566129 0.9907977426 -0.4608575525 -3.1878850682 3.2232592104
H -2.2295907108 1.6425936804 0.1899514552 -0.4199634507 -0.6257862457 -0.5480114614
H -2.5712133464 0.8849480373 -1.4352117431 0.2144109279 0.0329860367 0.2680787083
H -3.7253826747 0.6774188163 -0.1001831214 0.0963049687 0.0299830353 0.0005135511
H -2.3373559408 -0.8263201556 1.1092587533 0.4836391230 0.0932871815 0.4875898315
H -2.2861611519 -1.3324802757 -0.5863212190 0.5015388886 0.3225933354 0.5896192664
H -0.1744072914 -1.1388374470 -1.9848070680 -0.2464630074 -0.0122733383 0.5059500602
H 2.3843226326 -0.6797867724 -1.4529187471 0.9261267002 -2.0916692520 -0.0039467709
H 3.6210571741 -0.3783760193 0.9538413692 -0.9990269021 -0.5966889728 0.2854895645
H 3.1822782167 1.3391527085 0.7863720983 -1.9471510768 -1.2695928652 1.1033083678
H 2.6633529073 0.4832633271 2.2568672069 -0.1021556318 -0.5161796269 -0.6304448379
H 0.0862179268 0.3878499410 1.9753403565 -0.1829105986 -0.0240784399 1.3673125282
O 5.5734571653 4.6197780850 -0.3665758687 3.7248013053 4.7558819971 2.3989864734
S 4.5896735790 3.4692730822 -0.5396701318 -0.7368021902 3.5375062584 -3.8321292019
O 4.7440113669 3.1111945328 -2.0078045180 -0.0880142139 -3.1777483859 -6.0742076626
N 3.0676507464 4.0495635783 -0.3024768750 -2.5425154212 4.0664572936 -0.7492051001
S 1.8260132668 3.1784018033 0.3560846380 2.6572333529 5.3498700520 2.5372678212
O 0.6896411181 4.1607929205 0.6354648431 -4.8736889467 3.6948848988 -0.3741313729
O 2.1401921989 2.6040131764 1.7258490383 1.7118326362 -2.7785288141 5.5865909224
C 1.0659672455 1.9408649006 -0.6548048332 -2.4185253945 0.6947838681 -4.6360698302
F 0.0634648846 1.3680639702 0.1389145840 -2.7174585229 10.3051553113 -2.2915357999
F 0.5152916726 2.5111148471 -1.7735591409 -0.8528261124 -0.2110851413 -0.7778671802
F 1.9344514716 0.9579512113 -1.0682017067 4.2561953903 8.5235699977 -7.4533608477
C 5.2162503000 2.1770908796 0.4266058769 5.3967678432 -4.0001989059 4.9541131332
F 4.5529315743 0.9916405250 0.3954890797 4.0257989973 -0.6507488218 -1.9249142653
F 5.4470621594 2.5826601840 1.7433058577 -0.4456045692 -0.0318016158 1.0239505466
F 6.4979050531 1.8861262668 -0.0548309251 0.8930927276 -0.0722158767 -0.7351706730
34
energy=-58315.0614570136 config_type=IL_pair name=EMIM-NTf2 Properties=species:S:1:pos:R:3:forces:R:3
C 2.7352906713 0.1896907710 -0.5787402141 2.7521845608 -0.5311393746 -2.2032802985
C 1.8768459730 0.4551958915 0.6149696219 -0.6429570109 3.3874549273 1.1327288979
N 0.5024857037 0.0272536529 0.4098220900 1.7415971792 -3.4335694834 0.8649367221
C 0.0322415215 -1.2012521001 0.7065099937 13.2519228093 -1.3372585069 -12.9615291960
C -1.3276396451 -1.2690162011 0.3829789980 -5.5053670385 0.2828537659 -17.7338754674
N -1.6348324860 -0.0445623736 -0.1104396689 -4.0477833651 -2.7133870195 -1.0374988087
C -2.9804058481 0.3097358235 -0.5733992687 -0.8490747017 1.8191298003 0.6080016507
C -0.5323922329 0.7144772507 -0.0868728175 0.9503982047 9.1983528123 -2.7725018298
H 3.1184463014 1.1543383014 -1.0034863386 -0.4188489374 -0.8053269985 -0.1125738891
H 2.2369343364 -0.4288138260 -1.3655390437 0.0551239766 0.7065174942 0.3839732441
H 3.6547262380 -0.4008512111 -0.2986107141 -0.7488270644 0.4524893594 0.0267631933
H 1.7868117265 1.5556226952 0.8491533999 0.2522947958 -0.6823555166 -0.5147570216
H 2.3311531273 0.0282366015 1.5383341190 0.6771529436 -1.4071149958 1.0490134437
H 0.5771428341 -2.0461163890 1.1318092360 3.0828783354 -0.5605087472 -0.5196587791
H -1.9965314166 -2.1180114366 0.5003938127 -0.5722459559 -0.3748754327 -1.3498398258
H -3.7394343586 0.0621798538 0.2083380170 0.1970876023 -0.3332436608 -0.5825728822
H -3.1598724947 -0.1692059999 -1.5446136316 -0.4780883035 -0.1253448470 -0.2015316155
H -3.0175071227 1.4244976844 -0.6704167900 0.0349782471 -0.5979618114 -0.2773762785
H -0.4634628283 1.7566010115 -0.4226392711 -0.1462832065 -0.6626518498 -0.0805776686
O 3.2355724524 -0.6241406046 2.5725010956 0.7111244117 6.4527473226 -1.3503090956
S 3.1743663667 -2.1270071139 2.8159092490 -4.3378090524 1.5424201221 1.7198175492
O 3.2829714993 -2.4216001899 4.2834270821 0.8722110990 -2.0203780168 6.6514727053
N 1.7375814026 -2.7994708986 2.1366100776 -0.6783381785 -2.2805301409 -6.0339485761
S 0.3955523030 -2.6796443533 3.1892789614 5.5321402560 -3.9012647309 2.7655764165
O 0.5952105778 -1.7839200519 4.3543731323 0.5304805347 6.6913442020 5.8368957240
O 0.2121601918 -4.0808769459 3.7585701290 -1.7174967679 -5.7976688164 1.1145589433
C -1.1187899563 -2.3239825435 2.3229151982 -6.6049586680 -6.4684489752 4.8825848939
F -2.1837735258 -2.2324414572 3.1964118197 -0.7128925961 0.1705695086 0.6999682033
F -0.9761075959 -1.1012165757 1.6979257808 -8.2923742283 8.3208794756 24.9281770441
F -1.4439693496 -3.3377165585 1.4446883021 -0.3461538161 -1.4320786088 -0.6355122213
C 4.5790657205 -2.8297002025 2.0056268381 5.1636057610 -1.9345313423 -4.1258661407
F 5.7731984854 -2.3138820239 2.5235549445 0.1677249630 -0.1243831849 0.7213759991
F 4.5406597279 -4.1920751722 2.0839172165 0.3338400321 -1.7541986915 0.3087764216
F 4.6126107638 -2.4737010425 0.6605214148 -0.2179961046 0.2423615843 -1.2001712286
34
energy=-58326.5396956195 config_type=IL_pair name=EMIM-NTf2 Properties=species:S:1:pos:R:3:forces:R:3
C -2.6223348677 -0.3144378097 0.7678547874 -1.8429472165 -1.9253733785 2.1980533021
C -1.9573466835 0.3418532018 -0.3999495444 -1.6111786379 0.4179846226 -2.1689266765
N -0.5306858023 0.0043055223 -0.4336344292 -1.9776685712 2.2476565303 0.4376194619
C 0.0518894212 -1.0373053022 -1.0546526817 2.8066095697 -2.1535002483 -1.0419255429
C 1.4086824764 -0.9162109192 -0.7896206300 -0.9013710612 -3.4864449656 -2.4566244766
N 1.6083219043 0.1859212069 -0.0220573531 1.3600896477 -0.2617702344 -0.1202676518
C 2.8880743949 0.6619164680 0.4709359867 1.6606821864 -0.7397444436 0.7777491282
C 0.4088331767 0.7555203180 0.1982969557 -0.4781414446 1.9453125634 0.8710294657
H -3.4950647093 -0.9109227886 0.4656022582 -0.1394951477 0.0812870915 -0.2487857603
H -1.8933348161 -1.0398560266 1.2293846357 -0.9362326195 0.5919381271 -0.1844761976
H -2.9337400700 0.4452049805 1.5427040283 -0.1308141860 -1.0998844294 -0.9778879514
H -2.1050748077 1.4387287948 -0.3905709274 0.3374361060 0.0111319457 -0.1246472462
H -2.4151021736 -0.0760382020 -1.3289020211 0.4280865382 0.4487700049 0.0563116141
H -0.4475204344 -1.7997537398 -1.6345533321 -0.5181007807 -0.2869540966 -0.2685394658
H 2.1515778881 -1.6191834840 -1.1613695052 0.6417264571 0.1657191622 0.2080353286
H 2.7858512472 0.7260754538 1.5714581132 0.4548047180 0.5327154035 -0.0460564240
H 3.6726364021 -0.0920273600 0.2182673725 -0.4311342140 0.2693137993 0.1836350201
H 3.1526146641 1.5917625553 -0.0329148040 0.1359945813 0.8371354414 0.1441433259
H 0.2717227898 1.6544471305 0.7837210905 -0.8080674860 1.2004849214 1.0534748793
O -4.5548521769 3.5520159777 5.1667476446 1.6077114642 0.5164551614 7.5121037444
S -4.8727098965 3.2990963776 3.7229153546 3.8151645503 1.3922362662 -0.0541218555
O -5.6548503946 4.4543860494 3.2063616486 -4.5649316633 5.7316642089 -4.0315058780
N -3.4450409631 3.0780672598 2.7816985464 0.4600160312 -0.3466801481 -6.2546092309
S -2.1701874431 2.5944467347 3.8239359556 -4.5427680654 2.7262850020 1.7533655771
O -2.6318195853 1.6705796069 4.9165564712 -1.9607432140 -5.6835613164 4.5908095241
O -1.6285945563 3.8398681770 4.4789924134 3.5407313568 6.0688541366 2.1617473669
C -0.8636806986 1.7784737392 2.9376822126 2.3784623860 -2.9849550697 -2.5683117118
F -0.3389679333 2.6197948312 1.9922672766 1.8830515137 1.2544305239 -1.9830134611
F -1.3981639994 0.6833336744 2.2707502193 1.4342591348 -0.2376253582 0.6765902675
F 0.0639111738 1.3361723864 3.8317562536 1.7294540598 -0.4702898824 0.7917879231
C -5.7906703020 1.7780128623 3.6270063294 -2.8610460841 -4.6930303022 -0.8881173996
F -6.9586831612 1.8590300749 4.3549332276 -1.0908695386 -0.1445368102 0.8669423125
F -4.9960920236 0.7572044166 4.0982477279 0.5346728150 -1.3703684381 0.5395571333
F -6.1324352950 1.5093089587 2.3133103689 -0.4199727328 -0.5730960963 -1.3912147971
34
energy=-58327.0675553003 config_type=IL_pair name=EMIM-NTf2 Properties=species:S:1:pos:R:3:forces:R:3
C 2.5800271567 -0.5799765491 -0.4509363260 0.1575526988 -1.3287514514 0.4080497761
C 1.9204592835 0.4057872333 0.5210613076 1.0361171945 -1.4073137864 -0.8063865597
N 0.5156112501 0.4595804438 0.1414523452 1.7372815795 -0.9970545624 0.8198449667
C -0.0441771723 1.3024150363 -0.7468400083 -1.4238539051 1.8449176936 -2.3726951851
C -1.4032879820 0.9847430009 -0.7823911528 0.2764519946 2.6818395112 -2.1945228791
N -1.5868293391 -0.0381464956 0.0921240211 -2.1214295188 -0.6350847104 0.6179109000
C -2.8492136403 -0.7188251262 0.4050893882 0.0831529686 -1.4952483476 0.3233258965
C -0.4085272980 -0.3668232581 0.6649740505 0.2437653450 -1.6834573111 1.6354058524
H 2.3709421543 -0.2442713249 -1.4651891453 0.0711643285 -0.3141658210 -0.6004087448
H 3.6614247754 -0.6152421203 -0.2702812604 0.1575802400 0.0088911901 -0.1041359052
H 2.1505756722 -1.5944297440 -0.2243321753 0.4373995299 0.6889954813 -0.7447705281
H 2.4072159924 1.3948314601 0.4511421164 -0.7599044359 -0.4094398584 -0.3031686036
H 2.0348545904 -0.0442962512 1.5316943033 -0.5160251593 0.6627386623 -0.1094114341
H 0.4584555881 2.0861299754 -1.3314668683 0.2250435624 -0.2975524248 0.2873440505
H -2.1762657460 1.4633249544 -1.3941641304 -0.1241452913 -0.3944105033 0.1191442905
H -3.6980152940 -0.0571166021 0.2313605412 -0.4137227867 0.1959229132 -0.2033832070
H -2.8427081043 -1.6273244115 -0.2269419297 -0.7592685668 0.0037765979 -0.1214837502
H -2.8113952014 -1.0606839953 1.4557622732 -0.1777314204 0.2463953213 0.0454011588
H -0.2791466854 -1.1496762259 1.3978826498 0.2686532640 -0.2498031772 0.4563310561
O -0.4212129257 5.1582016758 0.8100522552 2.1211764120 7.3118266286 -0.4297943332
S -0.9418753353 3.7642054252 0.9872111094 4.5276828806 -0.4521546799 0.4647245644
O -1.4262273750 3.3276620087 -0.3736360853 -3.3586128464 -3.0199454447 -6.7006958953
N 0.2356380290 2.6400384825 1.4971474588 -0.0797664202 -4.5264828288 -1.1744927076
S 1.4421375061 3.3666701001 2.5047784765 -4.8908722341 0.0456518350 0.8942290001
O 1.3675243067 2.7145267831 3.8608037144 0.2191419395 -3.6333636197 5.8155933371
O 1.2772035233 4.8465342440 2.5815048231 0.0137072420 7.8417177717 0.1713739208
C 3.0266103808 2.9474652282 1.8096850235 4.5913320759 -1.0332817077 -0.5925042366
F 3.9872886318 3.5292802407 2.6166716528 1.1006858076 0.6600567050 0.1642582583
F 3.2096433313 1.5782822201 1.8961528974 2.2746928147 -0.2298107420 1.3395092532
F 3.0985445863 3.3701142575 0.5180018931 0.7731601497 0.2676929730 -2.2172985277
C -2.3364101948 3.7789178257 2.1033564379 -3.2142024645 -0.9903529256 3.7386577581
F -2.9158114615 2.5261820413 2.1469020038 -1.0190564480 -1.3940125506 0.1038408377
F -1.8100241042 4.0329855386 3.3567894161 -0.1794436706 0.6798927093 1.3367324202
F -3.2697587651 4.6867679727 1.6966237700 -1.2751117958 1.3338129991 -0.0588222675
34
energy=-58327.0314268352 config_type=IL_pair name=EMIM-NTf2 Properties=species:S:1:pos:R:3:forces:R:3
C -2.7202216511 0.1755398236 0.6047950889 -0.9897302153 0.4513674362 0.9104946584
C -1.8273808057 0.7314760893 -0.5005119357 -2.1268056445 2.5032139912 0.8256404522
N -0.4971290571 0.1787239508 -0.4197811754 -0.8724513312 0.7412643569 -0.5417849414
C -0.1186001944 -0.9570892559 -1.0566331598 3.0496121340 -2.5283100284 -0.6427332517
C 1.2197055506 -1.1695801657 -0.7436442596 -2.2723967103 -2.4355337336 -2.4315096676
N 1.6207853588 -0.1645016130 0.0708520948 1.6740611364 -0.1873986746 0.8550223410
C 2.9641886375 -0.0507146913 0.6055721360 2.4874523812 0.1277663900 0.6273097038
C 0.5756123715 0.6606199988 0.2709132533 -0.7839607037 3.8196541294 2.2937555007
H -2.2032712271 0.3595616359 1.5691869066 -0.4602848712 -0.1111450281 -0.1259290558
H -2.8984939618 -0.8975290904 0.4955987977 -0.2915259720 -0.2448518397 -0.0216536573
H -3.6747415807 0.7737705212 0.5615119124 0.6717807599 -0.8853207156 0.2908883841
H -1.8082946855 1.8408882715 -0.2937516894 0.5601619378 -0.7449540045 -0.5954617646
H -2.2947849749 0.6213554268 -1.4934600164 0.4156902601 -0.3868486101 -0.2341986721
H -0.7019350190 -1.5923152035 -1.6838717327 -1.1401693428 -0.3733340260 -0.6805547353
H 1.8259144856 -1.9934148062 -1.0925255662 0.6553119241 -0.2749467373 0.0254030075
H 3.6424851681 0.2990401283 -0.2226288081 -0.2085376916 -0.1526515407 0.6600586083
H 3.3135888954 -1.0496910505 0.9818315432 -0.2419229273 0.5312342912 -0.3520644671
H 2.9986003867 0.6614695826 1.4579361782 -0.1395563239 -0.0357237577 -0.3642309606
H 0.5839723030 1.5723904478 0.8886104318 -0.0043615148 -0.2277751374 -0.2313258683
O -0.5372064472 3.3881559557 -4.8317027541 -2.8779545772 -4.5154613118 -5.6227927600
S -0.0692727680 4.0527987639 -3.5671362876 5.0258634001 0.9450046084 -2.3880520721
O 0.1490822602 5.5074616701 -3.9259170404 0.7547327154 6.9743928323 -0.3944716085
N 1.3395463698 3.2963094469 -2.9756474954 0.0298955640 -5.6476801263 4.3659510218
S 2.7917361815 4.0471950080 -3.5139901356 -4.7330156121 2.5864300851 -0.0198577009
O 3.2044723901 5.1574677997 -2.5761264942 2.4024526414 4.2636692237 5.2048639169
O 2.5767222262 4.6667802624 -4.8692086790 -0.5752804273 1.8953730076 -7.1048095256
C 4.1453918399 2.8862889594 -3.5495231871 3.2990988880 -3.5073120433 -0.0282443698
F 4.3348290451 2.4027220458 -2.2876303184 0.6928611218 -1.1053458394 2.0895083864
F 3.9361820487 1.8533463285 -4.4114701522 -0.1421471546 -1.8442970747 -1.3670005207
F 5.2570665273 3.5845670052 -3.9488377837 1.5054908560 0.7523000654 -0.4307971093
C -1.4087563469 3.9946103807 -2.4016682300 -3.5701890893 -0.4345782926 4.4212410057
F -1.0458529489 4.6422051002 -1.2190821657 -0.4412194339 0.3069837987 0.6279527967
F -1.7269035574 2.6768486404 -2.1209306851 -0.5503160641 -0.9354619118 0.4311234306
F -2.5189331541 4.5681536216 -2.9914990283 -0.8049213154 0.6961013743 -0.0544552598
34
energy=-58324.7299483723 config_type=IL_pair name=EMIM-NTf2 Properties=species:S:1:pos:R:3:forces:R:3
C 2.6141310832 -0.8179200622 -0.3693581730 1.2671805852 -0.8391558010 -1.3041507235
C 1.9331599425 0.1438799407 0.6082083476 1.0245882285 -0.5996098156 0.3631414218
N 0.5413515608 0.3659805018 0.2023778709 1.6978394000 0.6329086780 0.1380579814
C 0.0744818119 1.3299503796 -0.6337716737 -1.9359995568 2.8157865190 -2.8278141107
C -1.3057495101 1.1590403550 -0.7283250324 2.8818063070 3.6270361398 -2.2394464544
N -1.6020238280 0.1043103518 0.0525963321 -2.8590164292 -0.0317915933 0.4496724215
C -2.9503071000 -0.4218255059 0.2428824781 -3.0294418799 -0.4384521871 -1.2736940077
C -0.4924255932 -0.3874552259 0.6237818927 3.3814599183 5.5475746247 0.8011085155
H 3.6780015249 -0.5217940809 -0.4915896096 -0.2984635258 -0.2683575602 0.1344218714
H 2.1524793451 -0.7379611018 -1.3795966854 0.1294126865 -0.2780035041 0.4941218654
H 2.5877641316 -1.8705593101 0.0046666325 -0.1838519734 0.6017182367 -0.4507921595
H 2.5175837258 1.0690544587 0.6710923218 -0.3402607741 0.6307108193 -0.0325520060
H 1.9598161449 -0.3493493048 1.5828684735 -0.3750129498 0.1670174804 0.7168853117
H 0.6684560367 2.0940853318 -1.1365981728 0.3236267101 -0.0884773002 -0.0149786819
H -1.9627070125 1.7837610455 -1.3290010896 -0.5978076850 -0.2131710777 0.0364540573
H -3.4152548975 -0.4928307577 -0.7836675469 0.1996167855 -0.0460751913 0.9089322554
H -3.5873928737 0.2187863746 0.8708205939 0.1387874408 0.5092700555 0.0975393641
H -2.9229401780 -1.4326548149 0.6999152581 -0.0409750996 0.7821356189 -0.2645559751
H -0.4884243143 -1.2364985754 1.2926977821 3.5056193346 0.7018748476 5.1941110886
O -1.1929269569 -1.9155740059 0.9115060999 -0.7874525432 -1.1408745096 1.8511212702
S -1.6441674897 -3.3345621214 0.6952890761 -7.5402995717 -7.0539287966 -0.0488100702
O -1.9268404519 -3.4549373715 -0.7756683516 -0.3468597786 -0.9128147245 -7.0391280528
N -3.0230161143 -3.7420215645 1.6630260165 0.8386518686 1.0202197251 6.2077985667
S -4.2806732347 -4.2703179112 0.5730916849 4.2812909465 2.1019731196 -1.7864332665
O -3.8730154864 -5.5750554397 0.0135118296 1.7709914753 -8.6938427374 -2.4117322858
O -4.3484650307 -3.2560309655 -0.5459351523 -1.7121595428 5.2544249699 -4.3345934725
C -5.8590530829 -4.3021175884 1.3489669526 -5.4685883906 -0.2298507230 3.5257031650
F -6.7761577656 -4.7345156261 0.3940290616 -0.6115006212 -0.0595978111 -0.3277676327
F -6.1676695027 -3.0351898351 1.7959093309 -0.7471619252 1.3535135081 0.2307987070
F -5.9057701193 -5.1416969587 2.4387961531 -0.3173929997 -1.0933094504 1.1463195526
C -0.2512698335 -4.3913312075 1.0864076822 4.4575772247 -2.1071196725 1.8035235219
F 0.7699715094 -3.9576979803 0.2464935598 0.9175924909 -0.2140204263 -0.8580050177
F 0.1834314019 -4.1696312983 2.3760214342 0.5189176761 -0.0010654737 1.5403241312
F -0.5409020716 -5.7128571041 0.9270552344 -0.1278339966 -1.4380497229 -0.4240917415
34
energy=-58327.8123135701 config_type=IL_pair name=EMIM-NTf2 Properties=species:S:1:pos:R:3:forces:R:3
C -2.7978864441 -0.0673929596 0.0591561988 -1.1712748029 0.2394171776 1.8264013769
C -1.7700514896 0.6846137034 -0.7595072024 -3.0647703251 -0.6176610344 0.0742592989
N -0.4229361740 0.1930683520 -0.5656737842 -0.4440608213 -0.0669531328 -0.0105136960
C 0.1554802465 -0.7883180786 -1.3000233968 1.4441036518 -2.9237260241 -2.3708872454
C 1.4303604697 -0.9858696945 -0.8325517874 -0.5597188799 -2.5890133883 -3.1160963781
N 1.6068417755 -0.1175846404 0.1827175468 1.4596261511 0.9102894566 1.7168582580
C 2.8342794099 0.0205284918 0.9812224626 1.2041914192 1.9777970363 0.0554675440
C 0.4728881314 0.6060038291 0.3483905284 -0.0356282096 -0.3658914225 2.1933638493
H -2.9394203055 -1.1032712181 -0.2647873765 -0.1805041671 -0.2988684358 0.1175974729
H -2.5036669723 -0.0089356171 1.1447832243 -0.3645061895 -0.4239086739 -0.8405207803
H -3.7444912027 0.5386596500 -0.0515724250 0.7601445617 -0.7230476003 -0.0196133198
H -1.8209236256 1.7532411849 -0.4820117776 -0.7314515675 -0.4650791887 -0.4441817609
H -2.0623161091 0.6328877401 -1.8305024444 0.5305011333 0.0123683803 0.2441378936
H -0.2784807558 -1.3536567408 -2.1305095763 -0.5189285047 0.3718357579 0.0502149970
H 2.1280514523 -1.7187115740 -1.2397751447 0.5051420112 0.1497402281 0.3432754314
H 2.9085472008 -0.7742908334 1.7232566455 0.2993942017 -0.6061631494 0.2412710182
H 2.8159131722 1.0113238514 1.4987558517 -0.2514689175 -0.5321632494 -0.0587836992
H 3.6929129093 0.0880297503 0.2702395139 -0.1798001186 -0.6060709546 0.4576951231
H 0.2948983110 1.3896748035 1.0855859806 -0.4868846496 2.3269242145 -0.0099248147
O -0.0460070121 2.9500643109 0.9039297042 2.6421803679 -2.2837079362 8.0792396898
S -0.3842023120 3.5147014205 -0.4410589947 -5.5493119569 1.9578389982 -0.5059047832
O -0.6866334195 2.4575431736 -1.4610950403 0.7711055289 -3.0491222905 -6.6392708999
N -1.8169301614 4.4875463203 -0.2285031313 0.6374281518 4.6415175999 3.9327844057
S -3.0660485194 3.9900578349 -1.3073252939 4.1247826435 -1.2890850765 0.3072534118
O -3.4517582383 2.5847860939 -0.9440649065 -2.9237853041 -6.5219398080 2.5190125636
O -2.6698784581 4.0507584653 -2.7403038135 1.8037322357 1.2765108350 -7.8986916379
C -4.4537874379 5.0813377123 -0.9730843140 -2.9598882319 2.3510708570 2.9618263134
F -5.4589271205 4.7115966912 -1.8127173948 -1.6137126076 0.1668743872 -1.5566895051
F -4.0852482955 6.3894837441 -1.0442283524 -0.1178386474 2.0390262555 -0.4777544555
F -4.8789821446 4.8050898095 0.3228763732 -0.5832612834 0.0949410626 1.1206685049
C 0.8727361441 4.6175756020 -1.0435318798 2.9823185358 4.4787182351 -1.2225479638
F 0.4207013617 5.1448159820 -2.2379959384 0.1293366117 0.1117242652 -1.3086515654
F 1.0493349479 5.6862523901 -0.1885857806 0.3926293590 1.1164224197 0.9955371001
F 2.0543732525 3.9475448689 -1.1449139800 2.0493246803 -0.8689568392 -0.7285381724
34
energy=-58316.9823120061 config_type=IL_pair name=EMIM-NTf2 Properties=species:S:1:pos:R:3:forces:R:3
C 2.5909985288 0.8318799018 0.3852943026 -0.1049638533 1.2368073101 0.5290789664
C 1.9270970809 -0.2434767102 -0.4605587685 3.9835911430 -0.1243257505 3.6166818897
N 0.5528652314 -0.3749885846 -0.0476705272 1.1214702270 -1.2452654858 0.8947154182
C 0.1042555921 -1.2068195883 0.9119812346 -3.1289338305 -1.6354739169 2.6146743101
C -1.2729627165 -1.0086431185 0.9804648956 1.9226931763 -2.2962676392 1.8138043532
N -1.6025853790 -0.0617961136 0.0563567572 -0.8209522078 -1.0837873680 2.1770043188
C -2.9674430478 0.4069938171 -0.1604221875 -2.0234968950 2.9770656657 4.2903364486
C -0.4762769833 0.3220093759 -0.5704769416 -6.8826430697 0.6340236983 5.6235290092
H 3.6643725359 0.9336666514 0.1462410282 -0.1285012184 -0.2688825135 0.2021954468
H 2.4273264657 0.5389040081 1.4404818477 0.4221374096 0.7805810501 0.0135733139
H 2.1129158925 1.8119781362 0.1328169358 0.2720570857 -0.4492832505 0.6762625478
H 2.5042331333 -1.1937255508 -0.2874976088 -1.0034088053 0.3573936534 0.0535977789
H 2.0034483724 -0.0381918104 -1.5464676028 2.1611902437 -0.1296441730 5.8722627967
H 0.6480879080 -1.9043206640 1.5325896043 0.8427827719 -0.1926610164 0.0132884703
H -1.9195478914 -1.5331373059 1.6582290413 -1.0377259919 -0.2410774034 0.3030582291
H -2.9139238074 1.2772561008 -0.8566225568 -0.6404405117 0.0940200564 0.7176466691
H -3.3628542957 0.7948304963 0.8222791604 0.4716049094 -0.3656259245 -0.1477548592
H -3.5758050282 -0.4196338392 -0.5340098909 -0.9786370938 0.1880173805 1.2253453537
H -0.4442015919 1.0672147981 -1.3561797025 -7.0134280443 3.6657365180 2.5588938279
O -3.4655150295 1.5040035744 -5.1870059883 -2.5842033467 5.4225916019 -2.1682271274
S -2.7100817393 0.4345501867 -4.4127856138 2.7276087873 0.2739556455 -3.7332358026
O -3.1033385166 -0.8616717528 -5.0406221536 -1.6849628240 -7.5166640479 -2.1005898605
N -1.0511924045 0.8109723475 -4.5451225416 2.2333520508 4.9751096338 -0.1670082251
S 0.0046246831 -0.4450628409 -4.0632079284 -3.7582500667 -0.0481211081 -5.0818682856
O -0.7420427403 -1.6118207953 -3.5356069239 -4.3427205557 -6.3657541325 4.5800399270
O 0.8506082878 -0.9095433046 -5.2314798176 4.4116572838 -0.9394552579 -4.5339182123
C 1.1680876971 0.2237142505 -2.8858542077 3.7881716420 3.3541583008 -3.5819241576
F 1.8391560664 1.2359846682 -3.5601770041 0.4090387947 0.8493313433 0.3014616132
F 2.1328832631 -0.6957478632 -2.5302541295 1.6928711128 -3.4556422915 -5.8494636623
F 0.5159294622 0.7324112687 -1.7672858605 10.9164264301 3.0870950348 -10.8840908201
C -3.2924716428 0.5438077177 -2.7304271938 -3.4252188432 -0.4418523190 3.0408154842
F -4.6505372823 0.2200146102 -2.7279784515 -0.6978974206 -0.1792509202 0.2215619227
F -2.6753842205 -0.3485778801 -1.8945422039 2.2944499880 -2.7244417621 -4.0751969447
F -3.2089593993 1.8558190366 -2.3024358108 0.5762870169 1.7971158576 1.0025220553
34
energy=-58326.5780263601 config_type=IL_pair name=EMIM-NTf2 Properties=species:S:1:pos:R:3:forces:R:3
C -2.7597156050 0.0389868688 -0.5214079630 -4.1984098846 0.1564881003 -2.6893211747
C -1.8644710654 -0.5081295061 0.5242620973 -1.2886064453 -3.4342430590 2.6096916842
N -0.4985232817 -0.0635124337 0.4847088843 0.8577147705 -1.1479834793 -0.9624518162
C 0.0252731647 0.9928861256 1.0934782160 0.1593378240 1.4389079543 3.1096612490
C 1.3700484686 1.0645842309 0.7967395732 -0.0390128053 3.1849193860 1.2692372517
N 1.6577617262 0.0093230651 -0.0207673610 2.2325365502 0.4023957511 0.1603953844
C 2.9692527119 -0.3146173760 -0.5875535953 1.8507988390 0.7402351597 0.5963715222
C 0.5161020631 -0.6455345097 -0.1871953515 -2.4580727254 -4.8250185088 -3.0212349341
H -2.3869248592 0.8547778060 -1.1376947402 0.5987930171 0.5639792493 0.1791665626
H -3.0690759364 -0.7574444446 -1.2614616421 0.5878073968 0.5820198674 0.7019214260
H -3.7513826126 0.3698312666 -0.0934152775 1.1223965426 -0.0630348965 -0.1476443755
H -1.8321172205 -1.6311289150 0.4098874548 0.1106831836 0.7549784801 0.1443418461
H -2.2563386793 -0.3552328418 1.5714495899 0.3628685386 0.3233865134 -0.7678499992
H -0.4848441108 1.7011376869 1.7240163998 -0.3240790419 1.5055316498 0.5708726768
H 2.0512566190 1.8245038836 1.1560490169 0.8688696667 -0.4221614179 0.5424725211
H 3.1370407051 -1.4087071558 -0.6029264681 -0.0800783707 0.1589226430 -0.2527151423
H 3.0756288103 0.1809537124 -1.5669040199 -0.0354474861 -0.3763258793 -0.4141796298
H 3.7239698243 0.1834907390 0.0882888307 -0.4674420043 -0.6473252927 -0.4801805560
H 0.3770592776 -1.5361682023 -0.7785696042 0.1013773479 -0.5394114588 -0.4568055740
O 1.0914085971 2.7912360607 -0.3398488204 4.9413348412 -4.8384344727 -6.5882903045
S 0.3414579895 3.8200743117 0.4488169444 -6.3688094871 0.8544096025 -0.2665629597
O 0.0778296113 3.3265859813 1.8395829102 0.8419842152 -2.0897202814 7.8725223443
N -1.1903135455 4.1781755678 -0.2667645510 -0.7658600058 -1.4679574278 -6.2481719983
S -2.1739287095 4.7987730405 1.0124365844 4.3790181081 1.6134631308 -0.3382686358
O -1.7811885786 6.2535058383 1.1959985679 0.8456649412 6.4011440366 0.1465919167
O -1.9165643639 4.0636136257 2.2670143417 -0.8863061508 -4.8348543421 7.7235736058
C -3.8906335753 4.7963922271 0.5722181388 -4.6851452291 0.2745579595 -3.6988914182
F -4.3519256686 3.5381231168 0.2883133002 -1.2760591595 -1.6651680794 0.1936334932
F -4.0021959465 5.5303279952 -0.6102523663 -0.4980807437 0.7003534085 -0.8585412060
F -4.5775971078 5.4536619949 1.5526493354 -1.2726405707 0.3104143807 1.2744204558
C 1.3341503674 5.2852683165 0.5082597460 3.9523295627 4.7533830416 1.2564530757
F 2.5609316856 4.9538950799 1.0918298605 1.1638446091 -0.3009387746 0.0938122494
F 1.5284181363 5.7590847593 -0.7539286425 0.4551547566 0.8878036190 -1.8194408872
F 0.8081594485 6.2682668591 1.3118451639 -0.7692884922 1.0450880892 0.5809402440
34
energy=-58327.7376315822 config_type=IL_pair name=EMIM-NTf2 Properties=species:S:1:pos:R:3:forces:R:3
C -2.6130904138 0.5451216145 -0.5739338440 -1.2624459536 -0.3287295451 -1.9386906165
C -1.8721308145 0.3500243892 0.7254040157 -0.9948991438 0.1183552633 1.1505300765
N -0.5323208856 -0.1593592547 0.4112906227 -0.8787542261 0.8374558857 0.9353343013
C -0.1523023506 -1.4445454072 0.2950622550 1.7135052524 -3.9194185183 -0.3757187561
C 1.2088212781 -1.4560351361 -0.0120450111 -2.0240747062 -3.7884985363 0.4196823504
N 1.6125220193 -0.1732549571 -0.0725511814 0.9560835372 0.7040167314 -1.0584560232
C 2.9294629328 0.3661401402 -0.3565861438 -0.5239879703 -4.6804079950 -3.3764626052
C 0.5447560335 0.6029734465 0.1866101935 0.6554904944 2.4476657429 -0.6393053438
H -3.3412290358 1.3675580090 -0.4264185791 0.2171992743 -0.1693200917 -0.4703561458
H -3.1806218583 -0.3790553365 -0.8662429547 0.5001099814 0.7121695224 0.0398148625
H -1.8558056719 0.7845072584 -1.3709936284 -1.0119466570 0.0961346293 0.4734357448
H -1.7973249534 1.3420705480 1.2164746981 0.8532530899 0.1448925407 0.2880332242
H -2.3532253644 -0.3972726359 1.3820929558 -0.0397432109 0.1394455111 0.1315240139
H -0.7978083338 -2.3033370708 0.4201643453 -0.5187322323 -0.2334186865 0.1587935644
H 1.8456433856 -2.3201688242 -0.1761662408 0.3532817564 -0.1183139219 -0.0843808310
H 2.9559155414 0.9181162275 -1.3408508001 -0.3897205123 -0.6265821100 0.9590409550
H 3.6999825234 -0.4231248197 -0.3614876496 -0.4402436924 -0.2849004407 -0.1875529829
H 3.1679122423 1.0960439003 0.4226211775 0.3804859914 1.0087912900 0.9486191754
H 0.5308437255 1.6835979086 0.2154353094 -0.4365389538 1.9923687193 0.7392272087
O 0.7668830969 4.5575052259 2.3988195425 2.0955970777 3.7945013915 6.5121591875
S 0.3628685079 4.0457692706 1.0545782910 3.6165506252 -0.9410397651 1.6833985844
O -0.4755325578 2.8131943081 1.2824015664 -4.3967516034 -6.3346454562 -0.4528847655
N 1.6915736950 3.6328698216 0.0755291243 -0.0688275802 -0.2674780174 -6.3383396351
S 3.1578878491 3.3780490836 0.9089386951 -5.1678092880 0.3438115135 2.4862273255
O 3.7941097470 2.1347597567 0.3060594069 6.3634235317 -0.3533611088 -2.5761730626
O 2.9440516256 3.0443337413 2.3722720708 -0.6473858627 -0.6681399558 6.3195313914
C 4.3357386635 4.6860081978 0.6914902516 3.8491097541 4.4323411916 0.0153887432
F 5.4832180801 4.3800539903 1.4061189795 1.0922488729 -0.4346229002 0.3547379694
F 3.8885645355 5.8880294846 1.1981354238 -0.6168561558 1.2959957782 0.1484004655
F 4.6155335832 4.7867792478 -0.6372878725 0.7075256480 0.5259366964 -2.0125930702
C -0.7220153586 5.2181720361 0.2320468492 -2.5891355843 3.0611466690 -3.7515465501
F -0.0603830782 6.3899501838 -0.0790137029 0.1277601550 1.2210842870 0.0228187705
F -1.0959756470 4.6161841806 -0.9615205253 -0.6795384309 -0.3044880748 -1.2242960024
F -1.8580588745 5.4294133919 0.9807526540 -0.8162062467 0.5676128685 0.6878716911
34
energy=-58316.2153498350 config_type=IL_pair name=EMIM-NTf2 Properties=species:S:1:pos:R:3:forces:R:3
C -2.6569087207 -0.1054659634 0.7624392356 5.1580349842 7.6655742239 7.6320682163
C -1.9192144175 0.3945154359 -0.4605509403 -1.6600727829 2.9089188629 -0.3390885137
N -0.5140682455 0.0052122184 -0.4326760616 -0.6092850360 1.2116377813 -0.6092472844
C -0.0151380592 -1.1439806483 -0.9537030399 10.5642875064 3.9087688173 -2.9093815904
C 1.3557783516 -1.1160935099 -0.7123855390 -0.6425364565 -1.2111464867 -1.2662479012
N 1.6152756268 0.0338370295 -0.0655800363 3.1546736947 1.5565265172 1.6803266016
C 2.9187975681 0.5248286556 0.4077937062 0.6419476968 0.9946020349 1.8085010336
C 0.4865917511 0.7252113529 0.1108940358 -1.2795938651 2.6733662498 1.2573267833
H -1.9269270669 -0.6964757427 1.3628176669 -0.0207193024 0.5498131844 -0.4484117992
H -2.9558428417 0.7350640851 1.4404386782 0.9070110118 0.0803665467 -0.4666011419
H -3.4900936976 -0.7858843394 0.5262237262 2.5700274381 11.5846101337 0.1359212354
H -1.9475699942 1.5068443412 -0.4225859561 0.1959940847 -0.2104666427 -0.6249108217
H -2.4164429677 0.0142609395 -1.3733899729 0.4520466955 0.1286292721 -0.1271066342
H -0.5929776858 -1.9087114835 -1.4508686641 2.8622810582 0.2234367941 -5.0979940362
H 2.0724056676 -1.8739132667 -0.9918306703 0.7998825728 0.5559141753 -0.1397090286
H 3.7336367590 -0.0762477504 -0.0225485679 0.0418807421 0.1144655112 -0.1622324512
H 2.9591789162 0.4827334264 1.5352625458 0.0737931565 -0.2688784778 -0.7860556808
H 2.9714703402 1.6016395334 0.1537363906 0.4554432174 -0.1986760896 -0.2927570553
H 0.3220487162 1.6826256864 0.5865134631 0.3561565507 0.4504293464 0.3737311053
O -1.5150173310 -2.0393951024 -0.9431346941 -10.9897727319 1.4388891629 -0.5948346017
S -1.4609305008 -3.3639383395 -0.2324957543 -6.2683687420 -5.3929091369 2.2907930797
O -1.5119613441 -4.4848194798 -1.2393359261 0.3762302892 -4.9959641614 -4.0468262254
N -2.7350949744 -3.5343592624 0.9073165976 0.1370846223 -3.8787020252 3.3150565413
S -3.8230805125 -2.2164576737 0.7734011675 1.2127150755 -10.4940813231 2.2673089529
O -3.5442019746 -1.3495037593 -0.4333671262 -5.2787681320 -5.4970363725 -13.7822542550
O -3.7491716037 -1.4033894803 2.0427329565 -1.9595336972 0.8643856270 7.4399185032
C -5.5191202645 -2.7432098289 0.6216817162 -6.1075389418 -0.9941352350 -1.6349006553
F -5.7183698723 -3.5319954128 -0.4941960001 -0.1098984491 -1.1780735697 -0.6961986642
F -6.0043229543 -3.3270692318 1.7509865058 -0.6515437455 -0.9462640838 1.3550084040
F -6.2404359719 -1.5691476686 0.3651370936 -0.5169697899 0.7215204114 0.1607696049
C 0.1418681555 -3.4202878420 0.5676300511 4.9609800381 -0.6660637542 2.2290582881
F 0.3275135495 -4.6278491955 1.2307828018 0.1967916520 -0.0478740562 0.3525565821
F 0.2915607228 -2.3316425336 1.3872009289 0.4596882532 0.6404733007 1.5737539882
F 1.0675432005 -3.3177373907 -0.4779070675 0.5041481375 -2.2879794633 0.1471603817
34
energy=-58326.9498072389 config_type=IL_pair name=EMIM-NTf2 Properties=species:S:1:pos:R:3:forces:R:3
C -2.6376447402 0.6611078183 -0.3311347951 -2.1383513806 3.2551149045 -0.9386636863
C -1.9073853586 -0.4697944564 0.3134884247 -1.0959745333 -2.3811680559 0.3302727133
N -0.4900420632 -0.4493330434 -0.0694644007 -3.2110137825 -0.2896974457 1.5788753214
C 0.0603131901 -1.0672166846 -1.1307821454 2.8007874788 -1.0490113028 -2.3821880694
C 1.4145298548 -0.7714638923 -1.0939036276 -1.4732208105 -1.9161738096 -2.4048544397
N 1.6130253485 0.0177315661 -0.0008626494 2.0451759684 0.3885921434 0.1080696874
C 2.8641685053 0.5688536889 0.4384459282 2.2595016394 2.0600224628 1.6251873185
C 0.4413311864 0.2185281065 0.6331925664 -0.3431514400 1.6044200319 2.4638068318
H -1.9536847794 1.3530391343 -0.8918568427 -0.5347307274 -0.5778746469 0.4210484703
H -3.1843330875 1.2732465795 0.4349195218 0.5408190511 -0.3366175669 -0.5244300452
H -3.4275497376 0.3049864915 -1.0249423618 0.4649611473 0.0667184602 0.0576574892
H -2.3538406158 -1.4272459335 -0.0606707800 0.5498794750 0.2289863929 0.3943919645
H -2.0217278128 -0.4599629777 1.4095703693 0.3853672071 -0.0745970564 0.2071159276
H -0.4417464897 -1.6708583958 -1.8648384187 -0.7655034312 -0.4478262554 -0.3418429698
H 2.1484182980 -1.1176258715 -1.8124329426 0.7184469586 0.1113554085 0.0226997012
H 2.8639812155 1.6837948403 0.3195366619 0.0265099352 -0.4709590291 -0.2941243583
H 3.7151924397 0.1399641859 -0.1063694320 -0.0195856378 -0.1767813287 -0.2086368646
H 3.0163323315 0.4095654444 1.5317526236 -0.1349603376 -0.3847964471 -0.3370706114
H 0.2806623151 0.8026833993 1.5318138420 -0.0427754908 0.1519630162 0.3720754986
O -0.5355434695 -5.1118715735 4.3799381932 0.3262069657 -6.2108897735 4.8341623426
S -0.8185112246 -3.8693929067 3.5881847182 5.2429339161 0.0566752453 0.6211453342
O -0.7141786555 -4.1719441117 2.1354878924 -0.2755196135 -0.7000942865 -8.4659253049
N 0.3631160973 -2.7073924184 4.1037549923 -0.8524204025 5.8775102150 3.0497802831
S 1.8993758421 -3.3817362604 3.6287206290 -4.9500175329 -0.2841582930 -1.7767429506
O 1.8193624951 -4.8777109400 3.5902717377 0.2408166282 -7.8978293209 0.5392209405
O 2.2705102916 -2.9025338326 2.2459752428 2.1778797407 3.4638626633 -6.1556336616
C 3.1986806252 -2.9170188154 4.7265110732 4.7573523065 1.8892893155 3.7622697452
F 4.3913389377 -3.4938133372 4.2806572404 0.5749316792 -0.4975960183 -0.2378536789
F 3.3931881369 -1.5528333150 4.6834837951 0.2419622272 1.7243710569 0.2711506423
F 2.9781579317 -3.3240177609 6.0162507311 -0.1593415021 -0.3451905068 1.6066654290
C -2.4680005123 -3.3523952421 3.9670261721 -5.3666003827 2.2979500447 1.3358137742
F -2.6597914521 -3.1678167124 5.3137298052 -0.3519561492 0.4971656705 1.5498052294
F -2.8334365682 -2.2249016619 3.2632055232 -0.5773656029 1.6638146824 -0.6287903410
F -3.3038131668 -4.3666199099 3.5559741098 -1.0542746801 -1.3016952671 -0.4604769517
34
energy=-58320.4007587709 config_type=IL_pair name=EMIM-NTf2 Properties=species:S:1:pos:R:3:forces:R:3
C -2.6267137247 0.2941303955 -0.6451679363 -1.2059034164 1.6688582453 -0.1803710763
C -1.9350858734 -0.1484973779 0.6385218517 -1.7138206611 1.6139110778 1.1141638080
N -0.5315466910 -0.3339620439 0.3243037940 -0.6140092468 0.8920788601 0.9114828455
C 0.0603935131 -1.4620479708 -0.1012382527 1.5190163036 0.4782436850 0.2966615829
C 1.4107911880 -1.2000619343 -0.2806387781 0.2205083839 -0.6688323853 -0.9100773918
N 1.6091460116 0.1071381640 0.0471156892 0.9695242040 1.4622846280 -0.0085743132
C 2.8613461722 0.8363938985 0.0164788260 2.4553073899 1.1788407695 -0.0684038897
C 0.4283840838 0.6093406322 0.4080833656 -1.0945332501 4.5644521349 1.4098577206
H -2.2149442126 -0.2182388449 -1.5299752425 -0.0722374634 0.0311384860 0.0516764476
H -3.7087127380 0.0853577907 -0.5358024736 0.2096013802 0.1269532244 -0.3614673139
H -2.4842830582 1.4084359910 -0.6898069289 -0.2214937565 -0.9185876571 -0.7034216251
H -2.4190941962 -1.0479308312 1.0481283654 0.6008069868 -0.2381227236 -0.0955974173
H -1.9986539296 0.6498296539 1.4065689549 -0.0325278263 -0.0789045280 -0.0864743560
H -0.4600124725 -2.4107033278 -0.2686764963 -0.6527965373 10.0086079971 5.3445894943
H 2.1386713811 -1.8996271913 -0.6120105218 1.6524319411 1.5941085069 -0.8191727764
H 2.9991483428 1.3600148713 -0.9694904962 0.0094430107 -0.5770700328 0.4528156385
H 2.8938013605 1.6215680124 0.8009179412 -0.2064058029 -0.2166157245 -0.0123593346
H 3.7021357374 0.1147611858 0.2199578701 -0.6023160602 0.4874299304 -0.4231614085
H 0.2752291058 1.6340989270 0.7227304682 -0.1535443392 0.4199996100 0.2882089125
O -0.8115390464 -2.4344410648 -1.8773299376 -2.9470123625 5.5681492716 -5.4956603598
S -0.3492138789 -3.5443613853 -0.9497689344 4.2338227358 -12.1681130839 -7.3628668227
O -0.1533595362 -4.8341305852 -1.7079471343 -0.1263450601 -5.7730105001 -3.0930677718
N 1.1232187998 -3.1752426227 -0.1621155520 0.8621882754 -1.8990344406 5.8506910195
S 2.4190548865 -4.0574613752 -0.8764369179 -3.5656893580 -2.2712456397 -1.9025851632
O 2.1041813801 -5.5137282083 -0.9903521466 -0.8146773334 -7.9812876668 0.8911618334
O 2.5948978561 -3.5411765253 -2.2743057587 1.6719905997 3.9763368554 -6.5361920696
C 3.8939673676 -3.7647746048 0.0672461241 4.5356403663 1.7363238215 3.6165716878
F 3.7513263452 -4.1677691151 1.3694437037 0.0665791339 -0.6275697999 1.7469859388
F 4.1164387931 -2.3972524039 0.0629031801 0.5155935270 1.7532286277 0.1056076722
F 4.9926863633 -4.3697992517 -0.4882994853 1.1021573002 -0.8124308449 -0.5995140751
C -1.6559267357 -3.7347806445 0.2657248975 -4.1351102991 -2.2090288913 3.7086913680
F -1.3479721880 -4.7475180729 1.1324802690 0.1667451680 -1.2416243601 1.2001323130
F -1.7409246024 -2.5633866304 0.9718872066 -1.4321019887 0.0613776261 2.0045673472
F -2.8387882151 -4.0362619100 -0.3730172840 -1.1976535354 0.0491399376 -0.3359306297
34
energy=-58327.5233649265 config_type=IL_pair name=EMIM-NTf2 Properties=species:S:1:pos:R:3:forces:R:3
C -2.6689061558 0.9109381460 -0.1911808507 0.2059428098 0.5462329389 -2.9909853917
C -1.9236243650 -0.1007019310 0.6592514058 -2.2997434548 -0.1346078077 2.6550882948
N -0.5484746011 -0.2852532656 0.2374535440 -0.6482989049 0.4305367301 0.5976324447
C -0.1831863734 -1.2055452916 -0.6735878563 1.8893545659 -2.8815366382 -2.9354051628
C 1.1853795364 -1.1038300849 -0.8316450224 -1.0417801826 -3.5681218764 -2.9808946126
N 1.6343621340 -0.1269144630 -0.0182172867 1.0067252220 0.4007407883 0.0717201789
C 3.0212586082 0.2855699483 0.1053509446 2.5530386904 0.1708221643 0.7962952825
C 0.5643241497 0.3626112412 0.6272190839 -0.5854754127 3.1944374772 1.6205200589
H -3.6799938769 0.5460608596 -0.4655515707 0.1431582387 0.4080101821 0.6600858674
H -2.6557365002 1.9239281466 0.2325199474 -0.3891086853 -0.0662292517 0.2467872902
H -2.1244442952 0.9792800844 -1.1754458997 -0.4937722853 0.1084353570 0.6212386529
H -2.4494741499 -1.0897965320 0.6841014857 0.4634599649 0.4186373171 -0.1153264268
H -1.9282788814 0.2546596136 1.7246516804 0.1910724513 -0.5477098188 0.3244129070
H -0.8341913316 -1.9046482912 -1.1951523542 -0.4792764530 -0.0106920430 0.1103567305
H 1.8130005714 -1.7084682564 -1.5013879535 0.1246780568 0.2592127693 0.2320955384
H 3.0730119325 1.3912365198 0.2026508018 0.1300871165 -0.2944354654 -0.0396135751
H 3.6013891005 -0.0804459240 -0.7696608071 -0.4149740953 0.3889148927 -0.0420583310
H 3.5045397359 -0.2152928542 0.9904871730 -0.4895212532 0.5272343950 -0.2450601702
H 0.5990447619 1.1666123347 1.3581435347 -0.0495876068 0.3493656383 0.6980087554
O -1.5279932869 2.3523906348 3.5318600987 -1.5584351306 5.5698295680 -5.3649354657
S -1.1276636034 1.2074306311 4.4057593720 -4.1448488466 -0.8725543756 1.2816681611
O -1.3750616279 1.5412871676 5.8546734682 -0.6440546342 0.9806328122 6.7139232735
N -1.8121235204 -0.2782423140 3.9326084604 3.9326991662 -3.3115306776 -1.8603007316
S -3.5066430837 -0.3357918604 3.9027413213 3.2175027983 -3.1196965340 0.1938183316
O -3.9899973667 -1.4770606410 4.7734160944 -1.8773968915 -4.3717146580 4.4030954750
O -3.9338504497 -0.6231474549 2.4890917156 -1.9873998513 -0.4427072656 -7.2572297962
C -4.3288952719 1.1055872654 4.4612978465 -4.2029558326 5.8319833924 1.0273638656
F -5.7031238409 0.8544086848 4.3572645570 -1.0579106596 -0.4259858450 -0.0562515852
F -4.1056169924 1.4025492699 5.7699615279 0.7038809029 0.8564540768 1.8119783835
F -4.1156293532 2.1811480588 3.6020988213 0.4683129355 1.0773711502 -0.1714058395
C 0.6524310268 1.0343749739 4.2203192639 4.9519900271 -1.2442465412 -0.5623566201
F 0.9608248070 0.7479236489 2.8880630265 0.8776452667 -0.1765669430 -0.8200027333
F 1.3209867967 2.1853547520 4.5542489289 0.6410976412 1.3733887948 0.3379491684
F 1.1481992449 0.0122160069 4.9767693126 0.8732278211 -1.4376707478 1.0395120714
34
energy=-58326.3643812831 config_type=IL_pair name=EMIM-NTf2 Properties=species:S:1:pos:R:3:forces:R:3
C -2.6955206701 0.4227812154 0.7723577318 -1.5558794109 1.0890896598 1.6705217427
C -1.9211654134 -0.1529785194 -0.3854437005 -2.5427344551 -0.6377196422 -0.4334735137
N -0.5260002502 -0.3292655082 -0.0944976711 -0.7379343930 0.7667066382 -0.1898755623
C 0.0705299330 -1.4236062578 0.4317259562 1.6516833065 -3.2892087843 1.4768486385
C 1.4215313708 -1.1750392095 0.5480281177 -1.5759150380 -3.3581863128 1.1449310522
N 1.5958338672 0.0726663227 0.0836187951 2.4782214977 1.4098330807 1.9112150677
C 2.8833763028 0.7470014530 0.0219420087 3.6329221933 1.1669754308 1.1161766941
C 0.4232964046 0.6047466708 -0.3122379581 -1.0018158521 1.6826061483 -0.4650247426
H -2.0751663791 0.6500061009 1.6550513398 0.0653118639 0.0268827279 -0.1206885964
H -3.4737523331 -0.2909687384 1.0950103580 0.0216237760 0.2443356804 0.0186682407
H -3.1945453223 1.3641656366 0.4459737286 0.1394989811 -0.4525538500 0.3813978331
H -2.3471889829 -1.1417179321 -0.6647779318 0.2016382579 0.2375334217 -0.3547873863
H -2.0024419957 0.5120880958 -1.2745934595 0.9213181848 -0.4879457326 -0.9084722949
H -0.4081265766 -2.3524581729 0.7221661596 -0.6892504855 -0.1651668958 -0.1065075351
H 2.1626030688 -1.8644169377 0.9374030886 0.6345521089 0.1341901837 0.0376550049
H 3.4888955699 0.4228853537 -0.8654539497 -0.3560251200 0.2988641494 0.7287388300
H 2.7745837993 1.8550337012 0.0508189013 -0.1915123885 -0.4417450930 -0.3386127246
H 3.5017798900 0.4875572126 0.9103121346 -0.4962340203 -0.1275092675 0.1511604903
H 0.3214777170 1.5915195134 -0.7174646018 -0.5617003979 0.9821008033 -0.2235248177
O -2.1152561676 -1.2731951425 -4.9043749533 1.4896758857 -3.9960632231 -6.0246569240
S -2.5520744484 -0.4415159640 -3.7360309118 3.1216955675 -1.6725905675 1.7724011359
O -3.4319875557 -1.2046872091 -2.7895640337 -4.4575181093 -3.0250164303 5.1809894891
N -1.2127190165 0.2405740328 -2.8828948164 -0.1785621028 4.8165915260 3.6875300331
S 0.2145951400 -0.4103002496 -3.5853638189 -4.9653643771 -1.3565077803 -1.5749222218
O 0.0041157310 -0.3343164399 -5.0832366483 0.5705693285 1.2979049061 -6.5202819356
O 0.3575496745 -1.8189427811 -3.0982196283 1.6720888088 -6.7011296545 3.2691185136
C 1.6587229202 0.5548775464 -3.2182671095 4.4004523795 3.4675419094 0.5019532019
F 1.5240115751 1.8364866876 -3.6920764354 0.0261750837 1.6590391842 -0.4507092802
F 1.9079645225 0.6166765882 -1.8635122163 0.6496381352 0.6149837863 -2.4362662843
F 2.7164178379 -0.0415777374 -3.8778009389 1.1782453129 -0.4657492262 -0.2342353999
C -3.4916489639 0.9160206834 -4.4059672975 -0.6635243540 4.5028650422 -2.7261115673
F -3.9406080925 1.7343182476 -3.4173617740 -1.5684591861 1.3222450556 1.3992713115
F -2.6127949231 1.6700826024 -5.1879697183 0.4757926318 0.7606576295 -0.6804688175
F -4.4497395905 0.4246717991 -5.2472232965 -1.7939373174 -0.2995366018 -0.6668878146
34
energy=-58312.2795641348 config_type=IL_pair name=EMIM-NTf2 Properties=species:S:1:pos:R:3:forces:R:3
C -2.7054380263 -0.5131055108 -0.4206454792 -0.8240764155 -0.8217491710 -1.4232542245
C -1.8514736553 -0.2341336506 0.7738387269 7.5811082393 -15.5455821235 -8.6682455895
N -0.5100398709 0.2008972446 0.4072683454 -2.1309369768 -3.8148223136 -1.1537568519
C -0.0565848190 1.4503949978 0.1934036168 1.1869971420 4.3568946272 -1.2714254961
C 1.2844897381 1.4114421662 -0.1343911393 -1.3477617385 3.0589953460 -0.2840747132
N 1.6244345441 0.0962279645 -0.1109747093 3.2147626917 -0.6777483996 -0.3407901113
C 2.9681884301 -0.4307377802 -0.3996154261 0.8796865380 -0.8690680887 0.1573724052
C 0.5425353275 -0.6364402461 0.2158175200 -0.8697112186 -3.3827632645 0.3271922119
H -3.3064643065 0.3738278505 -0.7066919411 0.2179954334 -0.1303082591 -0.4628348490
H -2.1080456900 -0.9100247778 -1.2848602386 -0.5941532517 0.4672720329 0.1134107621
H -3.4283247521 -1.3138822993 -0.1532648036 0.1640907206 0.3473602552 -0.1057735667
H -1.7912914947 -1.1553964165 1.3898434519 0.8666600403 0.0056140823 -0.5305312933
H -2.3808627095 0.5060026701 1.4000939362 16.8186857221 -57.8886682730 -22.8682332408
H -0.6738233024 2.3420332779 0.2729516413 -0.4512853104 0.1790907352 -0.0125315162
H 1.9489591272 2.2504226978 -0.3668375575 0.1344199744 -0.3271694385 -0.0089988165
H 3.1661327443 -1.2665532730 0.3081281192 0.0502136918 0.1193082150 -0.3757257180
H 3.7349393693 0.3489810392 -0.2428877322 -0.1832441323 0.0957376670 -0.0228862249
H 3.0091352083 -0.7857850800 -1.4487914757 0.1243471404 -0.0913131280 0.0788374874
H 0.5335341377 -1.7341708743 0.3076151448 -0.0945297366 0.3661558741 0.0475823208
O -2.5602828765 1.0730894255 1.6463645654 -23.5964020693 63.7931605091 29.0050862890
S -2.8095230758 2.4117816466 2.2353909116 2.9036000138 4.0024077652 3.0952826830
O -2.8453966975 3.4730986840 1.1877591970 -0.2003978669 4.8059715947 -5.2856777494
N -1.6741478487 2.7685000745 3.4724042836 -2.0464940244 3.1937015412 3.3587102687
S -0.1702083711 1.9807566516 3.2858814769 -3.5291871163 -0.3976359725 2.9754394264
O 0.3174274102 1.5254658653 4.6420109892 2.2443115952 -0.8833065018 6.2859465144
O -0.2188095423 0.7887593589 2.4099854828 0.5265294916 -6.2066668068 -4.1736878064
C 1.0005026946 3.1936671760 2.7224438330 2.9974455308 3.9581640427 -1.4117367556
F 1.0512766214 4.1760324541 3.6974442325 0.5743009260 0.8869889952 0.4274975919
F 0.5962673009 3.7490542342 1.5270254869 0.1184133394 0.9766235224 -1.2286809038
F 2.2177793751 2.5511804302 2.5855597620 1.2323764454 0.0058773003 -0.2784555378
C -4.4127363784 2.4983520659 3.0458088905 -3.2740959216 1.8463585234 2.8715220200
F -4.3998333897 1.5657504734 4.0405108432 -0.8573941244 -1.0348133726 1.3638388373
F -5.4262909647 2.3535284914 2.1467948705 -1.4542850474 -0.7459874478 -0.9477628149
F -4.4948266592 3.8073027969 3.5347307693 -0.3766318006 0.3512809120 0.7484145876
34
energy=-58323.4840536898 config_type=IL_pair name=EMIM-NTf2 Properties=species:S:1:pos:R:3:forces:R:3
C -2.6652829584 0.8640407690 -0.2249677559 -1.6139972774 2.1102522746 -1.7254918615
C -1.9713908472 -0.4235674938 0.0862715302 -5.1242012683 -2.3856571690 -3.4831747402
N -0.5461741806 -0.3716524748 -0.1069022960 0.2335827578 -0.0596077785 -1.8349817244
C 0.1238170333 -0.6616044380 -1.2485510074 1.7261520999 -0.9066797810 -4.2131616304
C 1.4775024471 -0.4975157334 -1.0483356425 -1.1796275278 -0.9934166121 -2.8834021487
N 1.6127393967 -0.0990454510 0.2488783663 2.8020707661 0.3543080560 -0.0828221533
C 2.8765885881 0.1970302989 0.9134360435 2.1431201474 0.3216702477 0.5488376918
C 0.3940522758 -0.0315613790 0.7880330014 1.3221609250 2.7381426316 3.5330885526
H -1.9860508341 1.7326141749 -0.3027099979 -0.0252542159 -0.2491127397 0.0099847271
H -3.4200270591 1.0995602003 0.5362641310 -0.0132785797 -0.1173014248 0.5169350537
H -3.2198063689 0.7585403096 -1.1890372005 0.4125393810 0.3899198261 0.4425598129
H -2.3463533504 -1.2374002082 -0.5877512830 0.3342490531 0.5129414250 0.0764224422
H -2.1713978254 -0.7558386740 1.1286313232 -1.5257291910 0.3906987946 -2.8961530042
H -0.3122076434 -0.9813343065 -2.2052680060 -0.4294751507 0.0720610400 0.3819754842
H 2.2653725952 -0.6538300423 -1.7735948339 0.6048639034 -0.0284720570 -0.0189092950
H 2.9169249278 1.2444891592 1.2844194307 -0.3162498419 -0.3244956806 0.2721290718
H 3.0969279491 -0.5465269685 1.7100998540 -0.2952555270 0.3580703438 0.1438256429
H 3.7088209581 0.1082380420 0.1852117656 -0.3694243772 -0.0754084172 -0.1279611437
H 0.1659448962 0.2553642155 1.8058725773 1.3161051041 1.2750078312 -0.1372838985
O -3.5615307718 -1.1638063877 4.7404049338 -0.2749838091 -0.7131691893 7.7149235543
S -3.2106787042 -0.9596332400 3.2936472628 -5.4825179896 -0.3095932765 -1.1075856693
O -3.5791873616 0.4466138507 2.8488397537 -0.6877337834 5.8247868068 -2.6465216569
N -4.0182071095 -2.1423958433 2.3502324398 1.6254594989 -1.8703724833 -5.1548308046
S -5.4283019834 -2.6366921245 3.2345847191 3.5454306619 -0.9983357127 -1.3378745022
O -5.0837238981 -2.7464988936 4.6867637009 0.9860618827 -0.4136265685 8.3099950286
O -5.9368734080 -3.9751186921 2.7898834915 -2.7076922506 -6.2308450523 -3.4058801587
C -6.6922522516 -1.3933780098 3.0022745751 -2.3467302758 4.4788376596 -0.7013892413
F -6.9892452508 -1.2797937738 1.6691407830 -1.2069858710 -0.0426576091 -1.6417170313
F -7.7663300726 -1.5965343081 3.8151819683 -1.9587377146 -0.4778394508 0.6249542730
F -6.1231642852 -0.1896153199 3.3776005833 0.4742294004 1.6306941968 0.5129171610
C -1.4351362113 -1.0317529531 3.1140535289 4.9199094099 -0.8020996252 2.2952432532
F -0.9454347600 -2.2571030893 3.5029637349 1.0969761965 -0.7670707195 -0.1939405740
F -0.9525458882 -0.0329617948 3.9708027455 0.6544838370 0.2022834868 0.1998521350
F -1.0627468941 -0.6613674850 1.8422213063 1.3522776088 -2.9035577749 8.0325413098
34
energy=-58300.5290147874 config_type=IL_pair name=EMIM-NTf2 Properties=species:S:1:pos:R:3:forces:R:3
C -2.6360745979 0.4566497298 0.0726035404 0.7485520419 1.5999432076 0.7792852579
C -1.8092969820 -0.4469527485 -0.8310743718 -14.5068750289 9.5772446192 -4.7996716109
N -0.4909658964 -0.4931654861 -0.2248798203 17.5040425543 35.5505410851 5.0673113962
C -0.0001063072 -1.3438918827 0.6937305618 14.0162564370 4.4588180065 17.6758250876
C 1.3084744790 -0.9597760572 0.9380382460 -1.3850524982 -2.2928679665 3.9155838760
N 1.5707773414 0.1109909915 0.1609044529 4.9081519144 1.9944333899 -0.1428609610
C 2.8092803494 0.8770960693 0.0574661667 0.1635081206 0.2316123321 -0.5957142806
C 0.4726266211 0.4097625933 -0.5604418141 -3.0910232864 2.7020421576 -3.2852102602
H -2.4784460696 0.0682294853 1.1040188692 -0.7376914984 0.2744337790 -0.3108481870
H -3.6802516149 0.4499581443 -0.2436863798 -0.3594937783 0.1361679899 0.1925974075
H -2.1788524551 1.4797238644 0.0298104803 -0.7473450034 -0.4371714021 0.1985015819
H -1.7665199636 -0.0154797514 -1.8351599136 0.7385660850 0.4499574178 -0.5122314840
H -2.2827687240 -1.4466923481 -0.8798752321 -4.2822294953 5.0426304686 -2.6703798066
H -0.5477847043 -2.1667247153 1.1418380519 0.9449793245 0.8498871016 5.5036857913
H 2.0118196480 -1.4122575213 1.6171330667 0.7623680140 -0.2400774118 0.0119842440
H 2.5844601654 1.9572971884 0.1912636684 0.3058227477 -0.1297931725 0.3951991060
H 3.2245814557 0.7756895514 -0.9638042304 0.3735998341 -0.0692638816 -0.0489067293
H 3.5060642483 0.4771656152 0.8066876428 0.2791144292 0.3138511206 0.0683203426
H 0.3829830068 1.2223772781 -1.2745729852 0.1257465128 -0.2105461176 -0.4166369320
O -0.9402918120 -1.5495668651 -0.3718701766 -11.0126290519 -31.7134972755 -15.2142535971
S -0.8902285531 -3.0400622639 -0.3822962685 -4.9216546125 -15.3370036856 -5.6461989895
O -0.9218631576 -3.5011777246 1.0388192099 -0.5017850055 -4.1783624586 7.5142684327
N -2.2313467279 -3.7664733613 -1.1890695933 1.6063934918 -5.5023076808 -4.0358237304
S -3.6171562860 -2.8042996827 -0.8537829720 1.5305449384 -1.7404268200 2.4838022817
O -3.4827619969 -2.3688540152 0.5926151642 0.0901766291 1.2201217022 6.5478463232
O -3.6204159698 -1.5934446094 -1.7007427254 -3.0729948465 5.6404613040 -7.5844620520
C -5.1304114126 -3.7258402799 -0.9582334858 -5.5091219116 -2.7858270868 -0.4770626791
F -5.3558249405 -4.2768594716 -2.1927177236 -0.1678125747 -1.1293072888 -1.1435091386
F -6.1451351291 -2.7817100060 -0.7561796292 -0.3931155993 0.5492816459 0.1442647407
F -5.2259444435 -4.6344689419 0.0744884871 0.0466380940 -1.0155530961 0.4444085270
C 0.6514368910 -3.5467418753 -1.0953565181 5.1412298176 -2.7452106553 -2.7629527970
F 1.6540499266 -2.9147358865 -0.3834620819 1.1380917445 -0.5287466783 -0.0640729043
F 0.7555009006 -3.1859660127 -2.4167954364 0.0094223334 0.4291864717 -1.3503998437
F 0.8064341289 -4.9202409822 -0.9965153289 0.2610792431 -0.9618538239 0.1068888743
34
energy=-58327.2599691865 config_type=IL_pair name=EMIM-NTf2 Properties=species:S:1:pos:R:3:forces:R:3
C -2.5952366912 -0.4676358769 -1.0264631770 -1.2917523424 -1.0886029982 -0.9376950999
C -1.9780816442 -0.1545059035 0.3176622693 -0.2275837438 -1.7800487154 -2.2367014176
N -0.5718588683 0.1682998361 0.1896447842 -0.5166994378 -1.0349239506 -0.1697063459
C -0.0879540160 1.4136364000 -0.0095848670 2.1311836863 3.9059039705 -0.7391283863
C 1.2954524288 1.3542388367 -0.0839701405 -2.0042477335 2.7049591690 -0.3533364286
N 1.6091942713 0.0517977150 0.0755000235 2.5107193116 -0.9523194773 0.1648186130
C 2.9674793818 -0.4732955267 0.0663229303 1.7624815651 -1.5273316691 -0.2817257551
C 0.4900605483 -0.6772075784 0.2419831927 -1.0191072809 -2.9796142384 0.4812108573
H -2.1027100708 -1.3295108167 -1.4945759279 0.0606649194 -0.1295257503 -0.2004245593
H -2.5717982076 0.3739895607 -1.7159964776 0.0202908948 0.4388927032 -0.2563133085
H -3.6603098985 -0.7487800866 -0.8343428780 0.5413869941 0.2870658953 -0.1751394303
H -2.4866352195 0.6847308038 0.7980622028 -0.2734489013 0.3515491515 1.3528388929
H -2.0673561877 -1.0476814945 0.9639630402 0.2230243552 0.1508626987 0.2396421911
H -0.6229950487 2.3519408334 -0.1060310174 -0.9364531440 -0.0019154587 0.0821982284
H 1.9844366299 2.1745947073 -0.2373014540 0.5861272282 0.1265088296 -0.0346298328
H 3.1888301405 -0.9663366096 -0.9060367076 -0.0098461584 0.3461246116 0.0397322452
H 3.7155438476 0.3021468163 0.2841797172 -0.1503371173 0.3469317702 -0.1388751153
H 3.0681549827 -1.2513527117 0.8313721900 -0.0909656822 -0.2331432105 0.3946283392
H 0.4257836217 -1.7590689045 0.3938198463 0.0631354953 -0.0698097321 0.0763924212
O -4.9356840746 -1.2389489569 2.7204115767 -1.4056549018 -6.9810725230 2.1373848452
S -4.5435111236 0.1968510566 2.5200539790 2.5775873849 -1.7161037244 -2.3749260492
O -5.1741125595 0.6273106607 1.2032430337 -1.9218317025 2.9843968321 -5.3956438533
N -2.8701149426 0.4463720362 2.3662678657 0.8554965804 4.2517013122 -0.9339609771
S -1.9137065104 -0.1815515805 3.6220546962 -2.1091041767 -2.3268496405 -2.1256195286
O -2.5974844831 -0.3506953380 4.9245963569 -4.3841674546 0.2511553339 7.8417832312
O -1.3057862337 -1.5256784553 3.2768027416 3.2726429553 -5.4224352670 -2.8611977873
C -0.5280976057 0.9463338133 3.8254224064 2.2449651204 4.7490710915 -0.0101610199
F 0.1893937525 1.0184096116 2.6591501513 1.6619204616 -0.0586402659 -1.3584639756
F -1.0847720982 2.2194621550 4.0026615274 0.1193840772 0.9451756055 0.5931441637
F 0.2632940691 0.6041697561 4.8808116509 1.1434848144 -0.2588233939 1.2065642798
C -5.3223902782 1.1694248970 3.7654111011 -3.4481704214 3.8898419880 4.3708127582
F -4.8360466411 0.9563217003 5.0292025275 0.7000450193 0.2349655384 1.4840664516
F -5.3138753662 2.5237023610 3.4301454714 0.2878809746 0.8650657608 0.1295962509
F -6.6633330436 0.7822066534 3.7828459434 -0.9689268670 -0.2826278325 -0.0159044409
34
energy=-58311.5734055732 config_type=IL_pair name=EMIM-NTf2 Properties=species:S:1:pos:R:3:forces:R:3
C 2.6676794200 -0.4142095185 0.5025519433 0.2061238112 -0.7241158559 2.0623230012
C 1.9388909066 0.5435830213 -0.4254909628 2.1663988871 3.0392357509 0.7160950990
N 0.5429913192 0.2108669029 -0.3793415458 0.1554625327 0.3375494440 -0.2612752989
C -0.0540232978 -0.6835024760 -1.2081475961 -8.6041398209 16.3559966932 -3.3739332369
C -1.3946531446 -0.7689892497 -0.8997432022 -1.4010166748 -2.5873565989 -1.8386342692
N -1.6065496591 0.0797874283 0.1219079113 0.5741324190 0.9104530604 1.8391687092
C -2.8966261588 0.2849483328 0.7429780928 -1.9945909579 2.4101223086 0.2022980800
C -0.4199480012 0.6701480585 0.4296625435 -1.5673773669 2.8339955971 4.3203403882
H 2.2451856239 -0.2892302603 1.5179157505 0.4312960223 0.2870112261 0.1338906672
H 2.4473478011 -1.4571424870 0.1465129008 0.7107801936 0.9955958664 0.4891462559
H 3.7674349121 -0.2078385264 0.4655701512 -0.8443989787 -0.3842611999 0.3322924951
H 2.0420190208 1.5871022625 -0.0116453891 -0.0466950362 -0.5172627767 -0.4928650359
H 2.3781680189 0.5219209292 -1.4455872800 -0.5293468257 -0.2688737935 0.0152213933
H 0.4471560053 -1.2435200698 -1.9913185563 -3.5853525995 21.8970316930 -13.2161499341
H -2.1115717726 -1.4076126939 -1.4038383810 -0.6135801632 0.4384603630 0.0684368648
H -3.5668398729 0.7022812233 -0.0583982145 0.0348870892 -0.7289550401 0.5005392401
H -2.8460356310 1.1017463931 1.4969540597 0.2408412473 -0.5436997899 0.0750611080
H -3.2858839638 -0.6384597781 1.1750181003 -0.2594612433 -0.4386886552 0.1658874876
H -0.2947415263 1.4081205076 1.2244396744 0.0272613700 -0.0972545030 0.2234311761
O 4.8893418779 -3.0236925320 -0.5566158780 4.4708907079 -1.9103067594 4.4176295676
S 3.9731498106 -2.7646835246 -1.7350448250 -1.3669655111 -2.7266682323 2.2288080084
O 3.2146144137 -1.5193424133 -1.3792583733 -4.4585247989 5.5742100565 -1.5220819973
N 3.0088585510 -4.1358017243 -1.9004999833 1.2687496255 -3.4618899208 1.4090636478
S 1.5158324963 -3.9721342801 -2.6601931364 3.2127947609 -5.9727870148 0.7051155039
O 0.5237365442 -4.8515430035 -1.9160999088 -4.1120059617 -2.5522756219 3.8524896281
O 1.5519517656 -4.4961312493 -4.0774082535 0.4546728493 -0.8869773626 -6.8433475805
C 0.8299052503 -2.3477544858 -2.6680406285 0.0670117130 -0.8173101468 -11.0712937650
F -0.4019105464 -2.3902085048 -3.3338809117 -0.5255282836 -0.1649233254 0.1517312357
F 0.5585413645 -1.8911984755 -1.4112923550 10.7181424881 -32.6572719504 21.2251073607
F 1.5973724076 -1.4600399178 -3.4124916532 0.5499871348 1.0311676248 0.0219849658
C 5.0308188238 -2.4394507828 -3.1128275499 4.4075913284 0.8343150750 -4.8101048728
F 4.3767451348 -2.2414367863 -4.2943886960 -1.2053114240 0.3296036657 -1.9491950296
F 5.9456442978 -3.4588600417 -3.2979903299 0.7923194359 -1.1266396522 -0.1324654782
F 5.7614634295 -1.2963929187 -2.8355523163 0.6329267822 1.2898491853 0.3589525824
34
energy=-58327.7993882499 config_type=IL_pair name=EMIM-NTf2 Properties=species:S:1:pos:R:3:forces:R:3
C -2.6307507813 0.7480408415 -0.0874455591 -2.5072414138 1.3929042863 0.3100160351
C -1.9277907913 -0.5590348193 0.2518056610 -1.4937491569 -0.1389011384 1.1935131358
N -0.5462250412 -0.4201331178 -0.1445646920 0.4502690158 -0.8475094032 0.2042024673
C -0.0759899540 -0.7489556973 -1.3748021859 1.4931486182 -0.9813153694 -3.6797799342
C 1.2864548179 -0.4915039904 -1.4148415814 -1.8747065755 -1.6913034915 -3.7672579093
N 1.6257280094 -0.0074491919 -0.2017976245 0.9766870749 0.6926703000 0.4243129090
C 2.9760311062 0.3874725370 0.1655641363 1.8467115876 -0.1885074999 1.0849056305
C 0.5101154367 0.0336313498 0.5645730134 -0.0623573648 1.4240352924 3.4471772984
H -3.6671262206 0.5380901038 -0.4837622878 1.0073578247 0.2608397053 0.2824293480
H -2.0718589475 1.3436098318 -0.8302194145 -0.1318077423 -0.1339607633 0.1229061182
H -2.7632376524 1.3340576184 0.8515726682 0.1735733040 0.0294744321 -0.6439435634
H -1.9751622046 -0.7687105240 1.3388953368 0.1011978729 -0.0949302473 -0.0070147765
H -2.3824443283 -1.3841755838 -0.2997159200 0.0846596551 -0.6272417449 -0.2563152428
H -0.6919583047 -1.1488684277 -2.1823815104 -0.2468567494 -0.0489841575 0.0715560131
H 1.9457343212 -0.6572956889 -2.2798718817 0.1910240071 0.1921252611 0.4540803739
H 3.4710217974 -0.5126176967 0.6229883813 -0.0047860859 0.7282411811 -0.0964237508
H 2.8985795117 1.2081083891 0.8919159979 0.2162816230 0.0754611741 0.3192737806
H 3.5417116404 0.7259801533 -0.7238205225 -0.2142723281 -0.1141349254 0.0078469634
H 0.4771675852 0.3797539130 1.5916975358 0.2377380403 0.0459621819 1.1980378874
O -0.6983992936 2.0962086626 6.4175384592 -3.3281732254 2.3739413630 5.7567332481
S -0.0430403929 1.3363417020 5.2874171022 4.2666849858 1.2331195105 1.4416705614
O 0.2533773959 2.3488215805 4.2149906156 1.4716822847 4.1566023066 -6.3486856740
N 1.3644796747 0.6057344099 5.9100242459 0.8548054044 -0.4081016880 4.9382775151
S 2.4490425025 0.0102325329 4.7423245021 -3.9768252373 -1.0132646013 2.3334266742
O 2.8764364214 -1.3774195789 5.2007972598 2.5247224250 -5.4356609492 2.5459449445
O 1.8184309943 -0.1650407094 3.3926978245 -3.2188543525 0.1959777182 -7.8198180479
C 3.9523665510 0.9490730789 4.6136075905 5.2653775854 2.3008465854 -0.7764314655
F 4.7000805390 0.3094628361 3.6144094975 0.5884958807 -0.3482988526 -0.7987622513
F 4.7061586940 0.8591516451 5.7660510545 0.5529162141 0.5413471577 1.0378866102
F 3.7458619576 2.2335074286 4.1892160412 0.0397863388 1.8753827207 -0.0752861654
C -1.2191493777 0.1602816349 4.6636568282 -4.1592372149 -2.9591122155 -1.9926374085
F -1.6272229898 -0.7038653031 5.6430395503 -0.3296704288 -1.6804206858 0.8080038793
F -0.7544538584 -0.4551416283 3.5220526252 0.3177151511 -1.3977509890 -1.2700713651
F -2.3470990254 0.8829949278 4.2801658826 -1.1179523315 0.6053681697 -0.4536228699
34
energy=-58327.4021105078 config_type=IL_pair name=EMIM-NTf2 Properties=species:S:1:pos:R:3:forces:R:3
C 2.6392741477 0.6663216832 -0.4202653331 2.2348177723 -4.7994519693 -0.1186205452
C 1.8674606132 0.0936751347 0.7680429746 3.9075555574 -0.1929599228 1.3263139310
N 0.5211066232 -0.2850829724 0.3931939609 1.1102030469 1.5623069414 1.3975576923
C 0.0962619961 -1.4774106533 -0.0680831581 -2.0662625069 -2.5888368965 -1.2987492951
C -1.2616311853 -1.3565628626 -0.2853373571 0.9536874268 -3.2549793673 -0.9402695630
N -1.6089586756 -0.1020495541 0.0503146252 -1.9588010328 2.6794170047 0.5241520319
C -2.9451956062 0.5017943321 -0.0084318436 -2.3859173697 -0.1635545444 -0.1673092964
C -0.5173453485 0.5818794384 0.4746955880 0.1863152785 1.9164680308 0.3728016956
H 2.6567541640 -0.1360059880 -1.1942668166 0.1417073329 0.4031754844 0.2189825874
H 3.6934055156 0.7907543746 -0.0565017739 -0.8286924365 0.2453447915 -0.4248876292
H 2.1814712597 1.5972527204 -0.7673481584 0.2874819051 0.1630554392 0.2286773240
H 2.4620311092 -0.7914117211 1.1135941213 -1.0469398403 -0.0713911109 0.1118268509
H 1.8968493281 0.8147549465 1.6107364643 -0.7171168808 0.0183719477 -0.0979079096
H 0.6772575529 -2.3610770411 -0.2410949557 0.9907490312 -0.5698352252 0.0098245133
H -1.9720149301 -2.0852705383 -0.6521963712 -0.3784747918 -0.3279092843 -0.1780048188
H -3.6945550586 -0.2725327244 0.3105959004 0.4406177737 0.4048270846 -0.4043251249
H -3.1881077532 0.8654225944 -1.0391545957 0.2711163365 -0.1766582465 0.4097230829
H -3.0341517657 1.3355523533 0.7055367147 0.3428038018 0.1833072573 -0.0103419484
H -0.4699119865 1.6199964777 0.8155505691 -0.0169142715 0.2516952812 -0.0725367215
O -0.3282926914 4.8084887768 -2.7825235398 2.1081266274 3.7456660422 -7.0631176231
S -0.7499207903 4.2653138134 -1.4617441579 4.2406507611 -0.4161218167 0.3207113625
O -0.8626186555 2.7790488009 -1.5895138858 -1.3076537645 -8.6315707423 0.3569669979
N 0.2537227837 4.7171400767 -0.1613536135 -1.8060390121 3.4174104197 4.3687114196
S 1.8415923128 4.1128999657 -0.2332822466 -4.3487372760 0.8361190223 1.6525517593
O 1.9841179619 2.7932608181 -0.8997006639 -0.4451018589 -2.6902572491 -6.2427720993
O 2.3440677955 3.9611995721 1.1780914613 2.1274745865 0.2210088176 6.5470462298
C 2.9326417239 5.2865448926 -1.0413102444 3.0440504240 3.3728629313 -2.8859694868
F 4.1870974367 4.7102997730 -1.0509279004 1.4478566384 -0.4547391829 -0.1943602857
F 2.5305368043 5.4944078385 -2.3564847094 -0.0611205162 0.6211131198 -0.6105756914
F 3.0201600169 6.4637433858 -0.3212080332 -0.1138636140 1.0546600574 0.1580108637
C -2.3750552653 4.9367075696 -1.1140041902 -3.3654928738 2.4230897381 2.6766451038
F -2.2154724273 6.3032731991 -1.0254572103 -0.5470562655 1.4758062381 0.1143807887
F -2.7230336725 4.4263233811 0.1342410426 -1.1884472033 -0.2335198237 0.7733927652
F -3.2871970929 4.6277679385 -2.0817950199 -1.2612752868 -0.4206260720 -0.8651492256
34
energy=-58326.0420972827 config_type=IL_pair name=EMIM-NTf2 Properties=species:S:1:pos:R:3:forces:R:3
C -2.5771614423 -0.9986265422 0.1786021133 0.2402591727 -2.6746581140 1.3265830556
C -1.9135083538 0.1225177809 -0.5821603199 -1.3991373318 -0.8350476794 0.5215263454
N -0.5750393287 0.3538302897 -0.1398301686 -0.6765242777 -1.1908584800 0.2817886986
C -0.1800765566 1.1975952246 0.8427949708 2.6610868800 1.6921758841 2.6458828072
C 1.2067011044 1.0816166069 0.9103147829 -1.5443051824 3.5264443812 3.8285560943
N 1.6247164504 0.1972384580 -0.0026393099 1.1297036194 -1.0388595754 -1.0568524364
C 2.9998699681 -0.2333710570 -0.2823507173 0.5639035209 -0.6026547478 0.5705618865
C 0.5151789128 -0.2321676833 -0.6304398951 0.7052987461 -3.3299212243 -3.5411078734
H -3.4458673837 -1.4156269810 -0.3725345884 0.0248743895 0.6482411794 0.3137228903
H -1.8658462749 -1.8639136125 0.2895034296 -0.4455264697 0.5965704502 -0.0970210411
H -2.8375512975 -0.6832703278 1.2099714793 -0.3004848390 -0.1303867434 -0.4094652786
H -2.5375477812 1.0405390634 -0.4289669130 0.4388182977 -0.6138079212 -0.4637886239
H -1.9136801821 -0.0966797790 -1.6675218081 0.0877734785 0.4387635362 0.0622326087
H -0.8073300493 1.8319799118 1.4516445614 -0.6344785861 0.0493888650 0.3874036843
H 1.8410189386 1.6295222886 1.6014971734 0.4893789671 -0.0240204502 0.0625273181
H 3.4553859396 -0.4384761107 0.7090537697 0.2017653825 -0.3086954581 -0.3283806864
H 2.9453527982 -1.1416978863 -0.9246802221 0.3609378371 0.4511916337 0.1898385196
H 3.5244760421 0.6134294406 -0.7308609635 0.4995980562 0.1527628190 -0.6124097199
H 0.5409084958 -0.9644390847 -1.4313973742 -0.2038029464 -0.2746761058 -0.3220442611
O -3.0973814323 1.1737245320 -2.0604308847 -3.0220522392 -6.7055104887 -0.0443931115
S -2.8632794227 2.6429902447 -2.2452833264 -4.2836435219 1.3926735638 -3.3626095620
O -1.9609344285 2.8339054822 -3.4311212595 4.5811577714 1.7307913638 -5.2116392572
N -4.2806548383 3.5560476110 -2.4267603613 1.0949940366 5.3514006717 -0.2155908059
S -5.7477943817 2.7302107501 -2.2062847867 2.0468543191 -0.1178337538 -2.8113890002
O -5.6465606570 1.2813831611 -1.9338105627 0.6927132701 -8.5527903824 2.7443798605
O -6.5790283045 2.9580333212 -3.4366939667 -3.9316557434 2.0019716836 -5.6743187680
C -6.6122553361 3.5648887583 -0.8753306928 -0.5828971258 3.2716200596 4.0167146016
F -6.8207332945 4.8854948824 -1.2640947370 -0.7715677964 0.6547304934 0.1942535910
F -5.7084274901 3.5708875397 0.1953752283 0.0583313004 0.2018020206 1.1983899845
F -7.7589715178 2.9150550144 -0.5169176809 -1.4789083388 -0.3021160663 0.5354850604
C -1.9827014308 3.2676995542 -0.8103925713 2.0517582309 2.9484000188 2.9493436660
F -2.7293464271 3.1641073768 0.3265916701 -0.7073466817 -0.2801629272 2.1877765685
F -0.7691576649 2.6218106937 -0.6670549624 1.5075464270 0.4987271500 -0.1027328960
F -1.7460494723 4.5973451289 -1.0923719996 0.5399788434 1.3789431441 0.2507686311
34
energy=-58327.3046869898 config_type=IL_pair name=EMIM-NTf2 Properties=species:S:1:pos:R:3:forces:R:3
C -2.5289316685 0.4734914809 0.7322237791 0.5953716938 0.1539120945 1.1986349938
C -1.9193448421 0.2564823547 -0.6541001047 -2.3074057457 -0.6132857144 -0.1249363568
N -0.5524769117 -0.1990898220 -0.3981143703 -2.6320910194 1.7256575366 -1.8094874048
C -0.1196381878 -1.4649021779 -0.2444393101 1.7836813352 -3.1661695043 0.5051235529
C 1.2406106164 -1.3567368726 -0.0260153791 -1.1680706077 -4.0479760187 0.1168868646
N 1.5854991854 -0.0503194404 -0.0534295352 0.9506714000 0.7780329119 0.2206700568
C 2.9044124649 0.4991969997 0.1295580127 2.2809594397 0.7156445785 0.2542541138
C 0.4693470272 0.6695077909 -0.2850045612 0.0805171557 3.0387223469 0.1022244485
H -2.1067732671 1.4164354197 1.1435519656 -0.6413478991 -0.3649321347 0.1848491218
H -3.6174552705 0.4369104181 0.7227745121 -0.4245777644 0.4367321782 -0.0463863666
H -2.1663016927 -0.3682576317 1.3591089404 -0.2956978880 0.4074001146 0.0551276987
H -1.9569186027 1.1524029365 -1.2793046318 0.4278044518 0.4557377622 -0.2435273437
H -2.5216582346 -0.5223164115 -1.1638115634 0.5654640420 -0.2053311879 -0.2011097854
H -0.7318193306 -2.3730931715 -0.2871037149 -0.1525047570 0.2667003480 -0.0475944619
H 1.8907068530 -2.2063836760 0.1367450501 0.7968971389 -0.0474107963 0.1854512360
H 3.3668259804 0.0304657390 1.0185433830 -0.0544224066 0.0732298916 0.2802708652
H 2.8443648403 1.5933819068 0.2848396463 -0.0558941378 -0.1888538041 -0.0688832773
H 3.4968765597 0.2635006426 -0.7733873949 0.2659685369 0.1686521936 -0.0041559191
H 0.4226744811 1.7493235146 -0.3626347236 -0.1200441060 0.4476945346 -0.0049163805
O 0.2512295232 2.8649031094 3.3138517375 -0.7094933123 6.3245597411 -2.4431808017
S 0.2231392370 1.4989535741 3.9647644160 4.9741348475 2.4005538148 1.1802279525
O 0.4645534629 0.4815004730 2.9110557950 -0.1328999677 -7.0232825982 -6.8072686858
N 1.4461619861 1.4863197828 5.1655193953 -0.5432628254 2.6085579996 5.2786927608
S 2.8311915390 0.5810308234 4.6823249932 -4.8141840698 -0.4024139966 1.6935719608
O 2.5728888471 -0.0098312569 3.3390291191 0.3349371821 -3.2472729714 -8.2076398830
O 3.0513834108 -0.4747354855 5.7274764297 1.7241593838 -4.4848287429 5.3229215680
C 4.2833570058 1.6040239405 4.6023846256 4.5449579558 3.5822183888 -0.2608354862
F 4.1131253843 2.6293011199 3.6926269453 0.0316516135 1.2003702185 -0.7665159859
F 4.6173004802 2.1119250938 5.8382829401 0.5021583013 0.6639157298 1.0571771843
F 5.3214117462 0.8033263399 4.1475735173 1.1021246361 -0.5931995318 -0.3316531611
C -1.3945466136 1.2984075533 4.6725287927 -5.2262365110 -0.7935135414 2.7472403184
F -2.3172010393 1.3204505902 3.6340210729 -0.8729656070 -0.0555962428 -0.9294906584
F -1.5190025041 0.0873257744 5.3245126282 -0.3958585589 -0.9117879979 0.8636716072
F -1.6919856140 2.3609546550 5.5008234330 -0.4137365791 0.6853735144 1.0349957146
34
energy=-58327.3130007443 config_type=IL_pair name=EMIM-NTf2 Properties=species:S:1:pos:R:3:forces:R:3
C 2.6730182831 -0.2035364828 0.7254632871 0.6646605091 -0.7316777675 1.2259454375
C 1.8526781113 0.8554465397 0.0315753996 2.5187590301 1.4033130312 -1.3233368920
N 0.5127385719 0.3637334175 -0.2241566045 1.3609119720 0.6471363075 -0.2767767571
C 0.1872580471 -0.2833366432 -1.3693778808 -2.5769249222 -1.8676937399 -2.2832099352
C -1.1533522527 -0.5884551793 -1.2416819954 0.5907157096 -2.1951365934 -4.9760438647
N -1.6264712632 -0.1424643654 -0.0600470497 -0.4661762948 0.3940331927 0.7120263798
C -2.9891861260 -0.2784475490 0.4272648143 -2.6011688323 -0.5762128278 -0.2903916112
C -0.5791991299 0.4415729874 0.5498037470 -0.3089571905 0.2893550693 3.0762544370
H 2.1442516429 -0.4773582271 1.6729043158 0.7338297964 -0.2090284664 -0.5191065584
H 3.6854825863 0.2060345507 0.9328169113 -0.4112706109 -0.2843070000 0.1315746853
H 2.7719648344 -1.0574066212 0.0313532106 0.0151321946 -0.1816325915 0.5005371802
H 2.3783783514 1.0737044407 -0.9416673959 -0.9215414690 -0.0967680095 0.3504471287
H 1.8164634166 1.8044604247 0.5682801577 -0.7311223676 0.5279129403 0.7916727899
H 0.8336487958 -0.5106742149 -2.1996122243 0.6858403598 0.0392956865 -0.3888345163
H -1.7932369173 -1.1150593212 -1.9627991233 0.0503970635 0.1286016948 0.1133206347
H -3.1252082093 -1.1891516841 1.0416315750 0.2853586357 0.0764326453 0.2358352948
H -3.3445507961 0.6103093976 0.9792482922 0.3789694867 0.0950466354 0.1124664434
H -3.6470858053 -0.4135020901 -0.4706684420 0.3670726834 0.2025160106 0.4656033946
H -0.5975921409 0.9041306201 1.5096690052 0.2919748965 1.5909794101 1.9462350453
O -2.7251136996 5.1540545649 4.0489999432 -0.8874420264 5.5920282300 5.4182240697
S -2.6760301963 4.2812154271 2.8342732776 4.5264717122 0.2805917052 1.4805810751
O -2.5182954304 2.8791438540 3.3085673873 -0.3560561364 -8.6010711978 1.3886231102
N -1.3456685147 4.6895090018 1.8396578870 1.0028662807 4.9621394802 -5.2809474789
S -0.0382226624 3.6462665367 2.2118952686 -5.8854381383 1.5333955528 2.6306964972
O -0.1426457185 2.4277651049 1.3420857408 0.5248086595 -6.1972497957 -5.5837149240
O -0.1374025066 3.1615678876 3.6491162456 1.0014427634 -1.5500714421 6.2931721928
C 1.5463817380 4.4201564581 2.0749136184 5.0597266311 3.7609220495 -0.8148707698
F 1.6676658786 5.5001386150 2.9257809320 0.0127382464 0.8853410754 0.9330918809
F 1.8025600601 4.8897555012 0.8046866306 0.6215522269 0.2202060264 -1.5080519562
F 2.4841597357 3.4792761795 2.4527212800 1.0757234395 -1.0135768611 0.0672292658
C -4.2228877596 4.4036023758 1.9765317502 -5.0285547556 1.2898223128 -3.0034873762
F -4.2530516966 3.5619605792 0.8951169396 -0.3024765554 -0.9864488912 -1.6505639611
F -4.5076933241 5.7031358460 1.5988029874 -0.3823749660 1.0819978274 -0.7051928152
F -5.2123604947 4.0158601956 2.8652539526 -0.9197459602 -0.4965308261 0.7455992502
34
energy=-58328.0335801070 config_type=IL_pair name=EMIM-NTf2 Properties=species:S:1:pos:R:3:forces:R:3
C 2.7516461046 0.2264639164 -0.5662539385 1.2708707575 -0.5466444885 -0.8976298889
C 1.8448073394 0.5585792691 0.5801532060 1.8196274441 1.7906261977 1.0213800131
N 0.5004654246 0.0368603953 0.4363352218 0.5396093401 1.1468186580 -2.0327667659
C 0.0208445083 -1.1518520681 0.8427366756 -0.2886046278 -4.0056687267 2.8540394094
C -1.3109118697 -1.2843381620 0.5248152501 0.3045681070 -2.9455824224 0.3834890541
N -1.6418315490 -0.1290870614 -0.0966123856 -2.1156495785 0.4714848522 -1.2217553689
C -2.9645902100 0.2250705950 -0.6341072767 -1.0900239527 1.3525575379 0.7379458132
C -0.5584250820 0.6529790892 -0.1458053649 0.7177143125 3.7862584072 -1.0887065196
H 3.7004647195 0.7705478441 -0.3712892470 -0.3098351482 -0.1881649308 -0.4466226539
H 2.9790771296 -0.8581335370 -0.5673574905 -0.0998038993 0.2848176632 -0.3319911287
H 2.2942960395 0.5371397651 -1.5065709586 0.2684689070 0.0140518476 -0.6319843424
H 2.3354593548 0.1354542733 1.4959903500 -0.8800326759 0.5003155417 1.6414949444
H 1.8254561644 1.6757758245 0.7381992783 -0.4793203588 -0.9315847408 -0.1226925459
H 0.6107635023 -1.9125678986 1.3576664181 0.4060373756 0.0546554990 0.1302176192
H -1.9872901085 -2.1201955833 0.7141926134 -0.0824637493 0.0988506013 -0.0593021836
H -3.4131908900 1.0375810195 0.0093613641 0.2747818601 -0.5942711364 -0.4451523445
H -2.8351844836 0.6241006737 -1.6493068114 -0.2342613343 -0.1994497563 -0.3799791601
H -3.6018665958 -0.6664389914 -0.5672196299 -0.1445624367 -0.1236948119 -0.3665001676
H -0.5499894982 1.6420606368 -0.5949272745 0.1077540407 0.3792717550 -0.1175553676
O 2.0380856978 0.6544928507 5.5853479764 0.2661779108 3.5208915829 6.1215696791
S 2.0189176423 -0.2595557790 4.3908565948 -4.2982706054 2.0723816683 0.8606255235
O 2.2409084901 0.6106228842 3.1845069572 1.7865050971 3.4738412109 -7.1883095489
N 0.6161162840 -1.2188784445 4.2814180869 -0.6189566361 -6.8353933834 0.3956596993
S -0.7833405976 -0.3125344785 3.8435273773 4.4949558328 2.3546631570 2.9492045438
O -0.6908211571 0.2922184764 2.4759935371 0.1647185333 2.8203428385 -7.0817057521
O -1.1081740881 0.7537569681 4.8638994488 -1.8727583147 4.1967789179 4.6143865902
C -2.1045227981 -1.5094260343 3.8051492534 -2.0396306104 -4.8582058451 1.5426090651
F -1.7577762400 -2.4537456880 2.8606063746 -0.6186246702 -1.2993966693 -1.3373096521
F -2.0172309096 -2.1663556197 5.0433259885 -0.9334704163 -0.2559416347 0.4789372906
F -3.3343765985 -0.9466330440 3.5943108870 -1.2365128333 0.1408323086 -0.2811854423
C 3.4103098573 -1.3768142986 4.5421587376 3.0168825808 -4.2456129374 0.0338372822
F 3.4140792497 -2.1677150969 3.4065582287 0.6906015209 -0.8665251433 -1.2991837513
F 4.5945169049 -0.6694503081 4.6438748495 0.7271598651 0.1732511232 0.2223380229
F 3.1954032010 -2.2169748431 5.6113386314 0.4974372407 -0.7414222281 1.3563810967
34
energy=-58271.1322995169 config_type=IL_pair name=EMIM-NTf2 Properties=species:S:1:pos:R:3:forces:R:3
C 2.6507954505 0.5674864700 0.6776239447 0.4414562052 2.0972907455 0.7681735650
C 1.9490080192 -0.0515191506 -0.5145247688 2.5267097513 -1.9687058520 -0.0055155843
N 0.5449290414 -0.2800063645 -0.2652894413 -0.3382770014 -0.4400263357 -0.6792997493
C -0.0103816243 -1.3918343138 0.2510458142 -1.1381314562 -5.3042926265 2.4975963523
C -1.3810754275 -1.2256901043 0.3351556340 1.9796690104 -4.1581326902 1.5885069089
N -1.6102044171 0.0122262526 -0.1457269691 -0.1830413960 -2.4231421149 1.3888992605
C -2.9248110490 0.5903275861 -0.2363582860 28.7715068601 -15.9229395993 94.0366349677
C -0.4621320936 0.5789166653 -0.5048647134 -0.4689420721 -12.7725567854 9.8851251258
H 3.7301143094 0.6147472465 0.4238840266 -0.3064454513 0.2582260063 0.3797500127
H 2.2256994060 1.5977268486 0.8304031706 0.7117963894 -0.6770235112 0.0679123728
H 2.5118243113 0.0100598644 1.6105959211 -0.0347499284 -0.2944777162 0.0093027255
H 2.1624871402 0.5510311348 -1.3965457232 -0.4809367487 0.3905022905 -0.6882751188
H 2.4548086707 -1.0437301061 -0.6600763944 -0.6294857516 0.3737237410 -0.3224206404
H 0.5106894423 -2.3040576008 0.5663409257 0.4274136124 0.2812650557 -0.1784171854
H -2.1175200174 -1.9465024689 0.7116320159 -0.0835207177 0.3208194648 -0.1997394932
H -3.4791458142 0.5528560265 0.7362083952 -0.3355000261 -0.2939135726 -0.0051920422
H -2.9090551697 1.6125179615 -0.6559024214 10.3919574838 28.5883374603 14.3989487678
H -3.5268974825 -0.0286781849 -0.9338821819 -8.6443279288 -16.0267794967 -6.5252849101
H -0.3191326956 1.5841222376 -0.9318698899 -3.7087873843 -46.6347567104 63.5151356377
O -3.1574694784 0.8727714402 -1.1114897692 -41.7984861525 -5.9763906013 -91.3283857821
S -2.7135737724 1.6268287734 -2.3195353489 -2.1988468754 8.5530887408 -7.3249099692
O -2.2528878838 0.6165099972 -3.3531281475 2.1654574192 -3.7633176690 -2.5433632613
N -3.9051398752 2.6306275276 -3.0067706752 2.1879638034 4.7779254619 -1.2000797805
S -5.4909169166 2.0066207623 -2.9513227299 2.1076807950 -2.1067434359 -1.4913664296
O -5.5863735045 0.6223088685 -2.3821472727 0.0545013043 -6.6209003095 3.7275121685
O -6.1112545448 2.0034067974 -4.3179580547 -2.8218404560 1.2664979699 -6.5488831829
C -6.4741368971 3.0733327480 -1.8895218866 -2.6685485749 4.0887051760 1.0570045538
F -6.4298546218 4.3356895888 -2.4823297151 0.0557206464 1.2367170272 0.2391006426
F -7.7900148186 2.6601485059 -1.9941660053 -1.0075789528 -0.5087908447 0.7140457314
F -5.9901924777 3.1021886111 -0.6205278217 0.1340185377 0.1977598924 2.0463468495
C -1.3126924389 2.6908740375 -1.9517373379 1.2960955254 8.7906650495 -3.8664958184
F -1.7297890106 3.6754295998 -1.0584671084 0.3679702248 -0.3671689327 0.6854141066
F -1.0011431270 3.3394189307 -3.1250741585 2.0641636999 1.2594623963 -0.8898219142
F -0.2938559971 1.9650977610 -1.4152246866 11.1579353079 63.7890230203 -73.1996434948
34
energy=-58290.3967203394 config_type=IL_pair name=EMIM-NTf2 Properties=species:S:1:pos:R:3:forces:R:3
C -2.5933577002 0.6958965422 -0.4363364719 0.0287600973 1.4134088343 -0.4941641930
C -1.8936668003 -0.6545041535 -0.3187718328 -1.6030483724 -0.1486280103 -1.1260151866
N -0.5390354386 -0.4148445036 0.1450785762 -3.8513615952 0.4666189977 1.2244460936
C -0.1688277346 -0.3753413319 1.4381934316 2.9007404555 0.5716716039 3.0608291936
C 1.2020387443 -0.1215501677 1.4023206617 -2.1943948670 -0.4746014796 6.1611516927
N 1.6145087201 -0.0169635673 0.1250352505 2.5342522902 -0.8042120759 0.7765865348
C 2.9404988649 0.2394431376 -0.3997360520 -3.2826345061 26.6532731897 27.7249873199
C 0.5288713406 -0.2001939211 -0.6432827697 -0.7738382747 5.7482319963 -3.3782961061
H -3.6613076593 0.5279488126 -0.6268936061 -0.1561500734 0.3730499090 0.0398025582
H -2.4102039818 1.3142723642 0.4688810020 -0.4540342018 -0.2954702318 -0.2851584401
H -2.1197922739 1.2249498430 -1.3029648873 -0.6250388478 -0.1168291246 0.5621866366
H -2.4578054321 -1.3477137432 0.3364882912 0.4458081217 0.0092651149 0.1821512987
H -1.8783934287 -1.0710969825 -1.3469244963 0.2480518647 -0.3834423329 0.3166997842
H -0.7995942433 -0.5111259684 2.3076929155 -0.4970993821 -0.0251264449 0.0693854655
H 1.8464063848 -0.0219665560 2.2697354551 0.4402494729 0.0064756029 -0.0318110560
H 3.6958188556 0.2500480189 0.4236530993 -0.0555952813 -0.1956695078 0.4031622308
H 3.2182905197 -0.5539311191 -1.1531734148 77.4411672647 -66.5902347162 57.5282393609
H 2.9661478592 1.2162560841 -0.9596623977 0.8857005922 2.5853145806 3.1262537317
H 0.5094034036 -0.1795827881 -1.7293327543 0.1603123043 2.7462827382 -0.3492809495
O 5.5368277219 -0.8023233640 -4.6307791169 2.6960324447 -0.1093772856 -6.7480421003
S 5.0594673134 -0.9848499335 -3.2223324580 -3.1714325509 0.6737373244 -1.9238496115
O 4.6275457024 0.3102233383 -2.6145506067 -0.5160506630 6.9089748962 3.3345264332
N 3.6906466749 -2.0456069156 -3.2517717020 -1.7508625590 -4.9008468029 -3.4139485828
S 2.7441461868 -1.6824300157 -1.8420819621 -2.6740061324 -27.6755871438 -14.4981054493
O 3.1885669190 -2.5406486043 -0.6961937805 2.0246781972 -5.0449752914 6.3993316572
O 2.8702990654 -0.2468947170 -1.4695684815 -68.0419442430 75.5908317284 -77.3332392585
C 1.0544211021 -2.0422795991 -2.2700906704 -2.1913769416 -3.6246336376 -3.1479620221
F 0.6534761145 -1.2686136705 -3.3356912309 -0.7969632153 0.9891415186 -0.6704652899
F 0.9454516080 -3.3682253023 -2.5953045207 -1.3200939842 -2.2346593822 -0.7941701870
F 0.2358837699 -1.7756875905 -1.1730419630 -1.2114258155 -8.2111802597 -1.1645611169
C 6.2902290831 -1.7584282281 -2.1997691424 3.7065903319 -2.8024297529 2.6313104549
F 6.5776293296 -2.9719119458 -2.8017317779 0.8619045783 -1.0457852786 -0.1065212704
F 7.4236410270 -0.9690791123 -2.0812797169 0.8125766899 0.1417010713 0.3430672262
F 5.7095286631 -1.9951774657 -0.9691075737 -0.0051733846 -0.1814447021 1.5739523016
34
energy=-58323.2007206715 config_type=IL_pair name=EMIM-NTf2 Properties=species:S:1:pos:R:3:forces:R:3
C -2.6574725049 0.0876971722 0.8886989028 -2.0095619473 -2.1552816990 1.7027394117
C -1.8861814147 0.7125855953 -0.2433276982 -1.7476587530 2.4814744648 -0.5019220692
N -0.5555158960 0.1534557698 -0.3785025894 -7.3848724050 -5.6172260679 7.2883780729
C -0.1662519229 -0.9016768905 -1.1170848099 1.3418108330 -5.3126202397 -1.2920338413
C 1.2067125453 -1.1061286666 -0.9645424482 -2.1521584781 -4.3215509744 -2.5129883135
N 1.6239579021 -0.1515278425 -0.1210048820 4.1598974371 -0.7719262705 4.3343964558
C 3.0023364285 0.0489948905 0.3503124022 1.6242507156 0.9909946307 -1.0411379574
C 0.5628741462 0.5967032425 0.2238679805 1.2537363936 2.1743366712 2.4429657313
H -3.1610571910 0.8409065576 1.5344606490 0.0892493220 -0.3355408829 -0.4594312424
H -3.4179337692 -0.6421282025 0.4849308937 0.4897730202 0.8139539513 0.5213010362
H -1.9986514255 -0.5173876750 1.5402345216 0.0029241478 0.2874002388 -0.0655507336
H -2.4669053199 0.6250129719 -1.1951915355 0.6989390586 -0.1923271260 0.1796990325
H -1.8351875338 1.8164982732 -0.0228175518 0.7410728843 -0.5101179315 -0.4747775739
H -0.8324253070 -1.4834284287 -1.7249874428 -0.7426515045 -0.2581349191 -0.4765037948
H 1.8196074086 -1.8782237302 -1.4302990685 0.1822099000 0.0474770165 0.2713972805
H 3.4485665677 0.9224203194 -0.2093398827 -0.5446642922 -0.1864110026 0.1502791489
H 3.0701372986 0.2602317820 1.4163904242 -0.2160858756 -0.1176157378 0.6782294364
H 3.6123187810 -0.8217234378 0.0693833786 -0.1407844705 -0.3315569420 0.2447453967
H 0.6310712071 1.4377182995 0.8988187564 -0.1780506643 0.8115166596 0.3240975185
O 0.3560946821 0.9514183848 -1.5305648432 0.7428761559 1.2137982790 -8.2117382553
S 0.8312111829 2.3497512620 -1.8405849846 6.4384252416 5.3886734487 -0.9579375809
O 0.2853710212 3.2269166379 -0.7388198148 -2.8117583998 3.9865856214 4.7858725548
N 2.5178545909 2.3719532807 -1.8733546285 3.2878033488 -3.9804395347 3.2591404365
S 3.1858781398 3.4986798702 -2.9817280168 -3.9625195314 -1.1579677729 -0.2165970529
O 2.7040369907 4.8566242543 -2.6289713342 -1.8663384193 7.8762518081 2.3973863852
O 2.7978293974 3.0854753412 -4.3806909390 -1.1844045272 -2.1545055805 -6.2700405008
C 4.9615858943 3.3825686547 -2.9598846046 5.5654892013 -0.7258797023 0.1260446198
F 5.4665015761 3.6534246017 -1.7086343095 1.0098322867 0.3866432757 1.0133087231
F 5.3299723004 2.1136449916 -3.3552840569 0.6756116786 -1.3123291904 -0.1957727201
F 5.4511893303 4.2654695781 -3.9241558279 0.3900524315 0.5832878647 -0.0403434208
C 0.0677997609 2.8796238694 -3.3413359620 -2.5971794464 2.4538784864 -5.6009147180
F 0.3885490453 2.1298837398 -4.4371262814 0.5208701257 -1.2066636379 -1.4571726549
F 0.3878986475 4.1983547221 -3.5951077888 0.1695413774 1.2673261650 -0.2841417809
F -1.3012194028 2.8002319341 -3.1894945226 -1.8417112582 -0.1139415764 0.3614805980
34
energy=-58314.5984042215 config_type=IL_pair name=EMIM-NTf2 Properties=species:S:1:pos:R:3:forces:R:3
C -2.6875244574 0.7226034703 0.1229099856 -0.6246805672 2.4721029023 -0.7685087972
C -1.8558896211 -0.4666997179 0.5261732098 -3.3269594415 -1.8365981106 2.1322089135
N -0.5080882986 -0.4090086072 0.0709374970 0.4594921172 -1.8606410027 -3.7451842468
C -0.0769430913 -0.9044032844 -1.1171412163 0.9955269532 -1.4712486674 -3.8634275653
C 1.2858339242 -0.6680921481 -1.2163445717 -1.8260210593 -1.6320747804 -2.3900335423
N 1.6518239520 -0.0256030536 -0.0683019836 0.3105926753 -1.3589334015 -1.9180986855
C 2.9875432017 0.4337048041 0.2963569949 1.5181130781 0.7884354568 -1.8503221349
C 0.5473023612 0.1161653656 0.6882660526 -12.7919999322 -10.4528984175 -9.9062080481
H -3.5777487302 0.8207438604 0.7770165215 0.0264351403 -0.3611058944 -0.5667836964
H -2.1318308809 1.6793809314 0.2518498636 -0.0391585481 -0.4655820728 -0.0289929575
H -2.9432016270 0.6452608520 -0.9526151761 -0.3519958602 0.1669295691 0.4047203308
H -1.9524689767 -0.5643728705 1.6343869178 0.8679597477 -0.0224228931 -0.2501185733
H -2.3666007122 -1.3774504686 0.1172888695 0.6538181704 0.2568929878 0.0932134135
H -0.7104748348 -1.3967795863 -1.8469828794 -0.3219239415 -0.1676208876 -0.3656776314
H 1.9324044370 -0.9391236549 -2.0407104829 0.5700989970 0.0053549877 -0.2102143899
H 3.6659688872 0.2221928336 -0.5710368856 -0.2681322274 -0.0940812599 0.7928623434
H 3.3242712893 -0.0215428862 1.2329579851 0.3536017121 -0.1644974873 0.1954257715
H 2.9340486481 1.5420743846 0.4156294373 0.9805314562 -0.0307740244 0.4625416554
H 0.4815745296 0.5909497759 1.6793598609 -17.9822862358 -7.3326678264 1.6765576064
O 5.7669197146 4.1376229779 1.2188843225 1.5469000196 3.4301232326 -5.6445451142
S 5.4692373347 3.1598586369 2.3303266593 -3.7756415319 1.9615107897 -0.2679362863
O 5.2102470112 3.8916262209 3.6080877661 -0.2732798824 3.0907163939 7.0770729638
N 4.0870212579 2.2018934089 1.9667781049 -0.9190254009 -3.9642622138 -5.0956320740
S 2.8245966326 2.3612249663 3.1090515941 6.5357464021 1.9080488636 1.9701412425
O 2.9234773430 1.3680476002 4.2308341934 -0.1971325987 -5.9976988699 4.5660586458
O 2.7991538750 3.7314870813 3.7239442207 -1.3735125188 6.9417031920 2.0416922757
C 1.2490840270 2.1098120281 2.2950596329 -2.4259112436 6.5218984030 0.2698276435
F 1.0630919583 3.0398074053 1.2922007144 -0.8274885566 0.2074912011 -0.7210514698
F 0.2168766989 2.1095108677 3.2067691808 -0.9652320347 -0.2799944415 -0.0074613157
F 1.2901845711 0.8649528090 1.6917198538 28.0278542183 14.9217988564 15.5714374696
C 6.9238129853 2.1160738892 2.4575751113 3.5683895780 -3.3893284300 0.0390426088
F 8.0572618833 2.8446719297 2.7486159527 1.0161389607 0.5529655930 0.1385099302
F 7.0703345027 1.4934760305 1.2260586836 0.6252177534 -0.8950055399 -0.7298362673
F 6.7074945291 1.2112203228 3.4703105032 0.2300439831 -1.4467712437 0.9204911109
34
energy=-58313.1913473215 config_type=IL_pair name=EMIM-NTf2 Properties=species:S:1:pos:R:3:forces:R:3
C 2.6819906462 0.6683154386 -0.3826837332 -0.4888821102 1.5021686949 1.6901267919
C 1.9208901755 -0.6439770288 -0.2110800479 9.3728169506 -0.9239393506 3.7564788240
N 0.5339623676 -0.3914852578 0.0770590155 -1.6639276074 2.4583101268 12.5567262737
C 0.0752896748 -0.2542826305 1.3538631652 -1.5595631824 0.7504832855 3.2943893574
C -1.2830982445 -0.0227927094 1.2882822045 1.3726480967 -0.1304382597 3.7034072995
N -1.6221992858 -0.0234141599 -0.0131945695 -2.2182856054 0.8063152631 -0.6285283815
C -2.9656131340 0.1841482155 -0.5482310730 -2.4661979058 0.0298573506 0.1782428839
C -0.5191452282 -0.2472865461 -0.7496786505 -7.0461205444 3.3587125543 -0.3265657409
H 2.1315903095 1.3320527261 -1.0800000141 0.5551157229 -0.0923085802 -0.0139457590
H 3.7117181502 0.4583758593 -0.6979349531 0.0585805859 0.2240572658 -0.1006196002
H 2.6599555607 1.1372286824 0.6424668457 0.4948483315 0.1731231696 -1.1139082383
H 2.4048259818 -1.1893297734 0.6210889665 -0.3391270521 0.1069196178 0.6397158037
H 2.0070163227 -1.2047608633 -1.1634617408 4.2369876457 -1.3216675933 3.2624815581
H 0.6573704135 -0.3136186090 2.2588244960 0.6552622006 -0.1221863534 0.4010735965
H -1.9810091549 0.1344798948 2.0980091888 -0.4882091639 0.0176856000 0.3646039157
H -2.9996684630 0.9897024882 -1.3009277445 0.1941012443 -0.0711201737 -0.3195565607
H -3.6508359312 0.4789036256 0.2685679265 0.3277766634 0.0220528259 0.4212762549
H -3.3410062857 -0.7791888634 -0.9733646292 0.3225690905 0.5837151272 -0.1059663932
H -0.4220338751 -0.3130704889 -1.8283825905 -7.0107968272 3.5224106654 3.0840942865
O -3.4587481519 1.2438104364 -3.7947667458 -1.0073709959 7.5857322777 0.9730051560
S -3.4858071984 -0.2556489948 -3.7973986941 4.5532545966 1.3357498421 -1.1396057909
O -3.1980012114 -0.7746795329 -5.1764377833 0.2345958778 -3.4818724593 -6.7408139799
N -2.1924083308 -0.7737261355 -2.7803267466 0.7374952793 -5.0119908666 5.1941136683
S -0.7520608482 -0.0486668834 -3.4478128572 -7.4347678861 0.5167993114 -4.7464861997
O -0.7808747110 -0.2596956685 -4.9301600839 1.3590832389 -2.0398725214 -7.4603212067
O -0.8367104156 1.4114071328 -3.2083212185 0.7160987321 8.8220761607 2.8041233562
C 0.7141303129 -0.7933439109 -2.8041363315 5.8757842823 -5.5556907102 -3.1182258920
F 1.7859087115 -0.1663681228 -3.3788040465 1.5070084124 1.0165377805 0.2771791444
F 0.7458392598 -0.8495910272 -1.4360982952 5.7279102533 -9.8049487359 -20.0731395477
F 0.7345167570 -2.1086745274 -3.2870524716 0.1836656818 -0.7334533537 0.2382478659
C -5.0499326632 -0.9160522610 -3.2885326049 -5.3833369781 -1.9128189152 1.6673088010
F -6.0406657268 -0.4560555950 -4.1528800680 -0.5253398092 0.3250877721 -0.5443021851
F -4.9888198991 -2.2767239462 -3.4051242266 -0.2697975642 -2.0124579334 0.2450660825
F -5.4025890068 -0.5229095436 -2.0182464498 -0.5785021509 0.0566940410 1.6756965858
34
energy=-58327.0338849955 config_type=IL_pair name=EMIM-NTf2 Properties=species:S:1:pos:R:3:forces:R:3
C 2.7137010774 0.3369719311 -0.5202216475 2.8178319139 0.7280313846 -1.2046896278
C 1.8474855180 0.4184240571 0.7089402616 0.9482692681 2.1676673258 2.5685371549
N 0.4945008631 -0.0488824734 0.4498308831 0.8674965398 2.1099143567 0.6005250318
C 0.0829872582 -1.3227812089 0.5937043238 -1.1283369030 -3.2967077784 0.7964965863
C -1.2539528979 -1.3407236411 0.2502835463 0.2880751095 -2.8789734178 0.9950492603
N -1.6256310831 -0.0752873048 -0.0951674964 -1.7897644942 -0.7147926595 -0.4027348185
C -2.9777068409 0.3032689800 -0.5205581416 -1.8369872560 0.6621225854 0.0634938263
C -0.5525873149 0.7158712965 0.0276290826 0.6870727916 3.0153682414 -0.4834648556
H 2.2630275278 -0.2473899650 -1.3449760293 0.2306786997 -0.1985899439 0.4283135791
H 2.9430056142 1.3685459272 -0.8877872037 -0.2225862800 -0.6088057505 0.0579000607
H 3.6956480652 -0.1030410412 -0.1796385311 -0.8624518042 0.0292978280 -0.9411508004
H 2.3110936597 -0.0928960110 1.6019152170 -0.7370244100 -0.2484238455 -0.8344661989
H 1.7573919063 1.4905698515 1.0453240760 -0.0787424513 -0.6130707940 -0.2801396476
H 0.7252444513 -2.1300811936 0.9192647689 0.7444009903 -0.4688887804 -0.0458481100
H -1.8820476716 -2.2220420818 0.2606811128 -0.7507718273 0.0757616983 0.0680193300
H -3.5090697225 -0.5809775643 -0.9458865554 0.5271580779 0.3663085936 -0.1816055438
H -3.6047578057 0.6260108704 0.3602776348 0.6342100826 0.0813866222 -0.5236293984
H -2.8637639558 1.1306558296 -1.2538699069 -0.4279346122 -0.2581688273 0.1068140019
H -0.5645686489 1.7737837415 -0.1836278318 0.2628916201 0.6716847702 -0.0965191810
O 4.3297274688 -2.7433850363 -0.7501970619 0.1260072325 1.9903737000 8.3288407541
S 4.4559095623 -2.8824485617 -2.2356016837 -4.2165249523 -2.8029549939 0.6624192902
O 4.9219513177 -4.2851873971 -2.5001100083 3.0488628134 -6.5469991325 -2.5319016716
N 2.8962775976 -2.6764297287 -2.9081631580 -2.6498851129 2.9373667888 -6.2960099916
S 1.6641544137 -3.1253357449 -1.7561580448 5.9567129070 -1.0106880460 -1.4764576628
O 1.6620712612 -4.5934881285 -1.5014291935 -0.9806952642 -7.7195630984 0.8822079495
O 1.9691836894 -2.3612943812 -0.4876298050 0.1414138530 4.6083355625 6.9538127528
C 0.0793086723 -2.5370419935 -2.3296244238 -3.2334023234 1.6590366597 -4.2041291004
F 0.1934008931 -1.1526227303 -2.4311361156 -0.7924593656 0.9079946022 0.0079901667
F -0.2015224018 -3.0871801062 -3.5826267458 -0.5038052673 0.1729299482 -0.5700464013
F -0.8811778617 -2.9486811927 -1.4605897543 -1.7798381317 -0.4673757647 0.8309150415
C 5.6224289065 -1.7055593608 -2.8589496108 3.8906907004 4.6312370028 -1.8046389005
F 6.8504756371 -1.9677536559 -2.2456763323 0.8024510156 -0.4547896962 -0.1474027444
F 5.7088167133 -1.7235301913 -4.2252412413 0.5887713808 -0.1267516638 -1.6910254961
F 5.3065827196 -0.4169441341 -2.4766146832 -0.5628415733 1.5908123423 0.3546544927
34
energy=-58321.0708147880 config_type=IL_pair name=EMIM-NTf2 Properties=species:S:1:pos:R:3:forces:R:3
C -2.5961793540 -0.4907221572 0.7642570228 -1.9269365375 -1.2917632697 1.3757681756
C -1.9302532343 0.5478451164 -0.0982089452 -1.3360506251 2.6429985397 -0.9734642238
N -0.5649719348 0.2246847259 -0.4044565530 -3.9305285646 2.0718302955 -3.2408128361
C -0.1532211602 -0.4970697668 -1.4862570121 2.9483638823 -2.9292213702 -3.8305212392
C 1.2332971248 -0.5909870667 -1.4258886049 -3.4617235004 -2.1679556516 -4.3524226512
N 1.6312443885 0.0677311637 -0.3218295672 6.8761215513 3.0170105954 -5.4308152747
C 2.9762905028 0.2514140953 0.1722535556 2.3424037162 0.1164782647 1.1442431853
C 0.5240801838 0.5482148666 0.2726278012 -0.4090593919 10.8737038747 -1.9514295544
H -3.2764287408 -1.1095161538 0.1240383214 0.5158824712 0.1176292582 0.8296664986
H -3.1919601104 0.0415472010 1.5414169853 -0.0726337879 -0.4821118671 -0.4650847706
H -1.8785604877 -1.1234780832 1.3297313953 -0.2202539066 0.1329326378 -0.4976961389
H -2.4658960929 0.6870931418 -1.0760022870 0.2205365815 -0.1976796016 0.5688482498
H -1.9566662406 1.5477516096 0.3906765095 0.1713722357 -0.2031277490 -0.0062629054
H -0.8084431662 -0.9160054598 -2.2492031196 -0.2683169350 0.1353307955 0.1008475976
H 1.8633397096 -1.1059935782 -2.1471145085 0.4948446402 0.0794947036 0.0650770608
H 3.3757304767 1.2748341078 0.0179490433 -0.2948774441 0.0461723772 0.0977118466
H 2.9987610325 -0.0379982816 1.2629797370 0.3584865373 0.0457380085 -0.1667063546
H 3.6931604521 -0.4444175215 -0.3143275723 -0.5897806608 0.0664770794 -0.1829012291
H 0.5266766510 1.1250720408 1.1872663617 0.0558480723 5.5174978356 -0.3620587245
O 1.4741164259 -1.6561792469 4.6571271068 -1.0211367857 1.5663900918 7.3181506921
S 1.6338507856 -1.6798880250 3.1667405298 5.0799716928 -4.7198644251 1.3893001302
O 0.9799149139 -2.9528084411 2.6583502169 -2.7153399538 -4.5757779235 -3.3355036591
N 3.2535581718 -1.6903117344 2.6496318890 1.3573006341 -2.1347172760 -5.2963394780
S 4.2624845964 -0.6692143423 3.6100247081 -3.8261160289 0.3128629746 1.3123449785
O 3.7901765609 0.7621364678 3.5622751556 -1.9952089517 6.8100044327 -1.6018332894
O 4.2938366697 -1.0877336090 5.0447604831 0.8516089109 -2.9991627190 7.0732534825
C 5.9340739642 -0.8032757761 2.9902494806 5.1729772944 -0.3845870622 -2.2722561621
F 6.8014966310 0.0042671085 3.7306893237 0.2447241001 0.0395248394 0.5209322894
F 6.3039038741 -2.1214028537 3.0545409399 0.9579629252 -1.5540323888 0.2637913716
F 6.0350562935 -0.3950929919 1.6855975459 0.2094346803 0.6127958458 -1.9749344263
C 0.7027429307 -0.3410116600 2.4617322787 -3.1818521005 5.0147310863 5.1950203916
F 1.2999137968 0.8609741182 2.8479363977 0.0481424651 1.0361818811 -1.1847497952
F -0.5767797481 -0.2849602777 2.9767705326 -1.1028491748 -0.0055510898 -0.1952897733
F 0.5979780300 -0.4602109941 1.0925783176 -1.5622297478 -16.5953092331 10.0567149018
34
energy=-58326.5079266305 config_type=IL_pair name=EMIM-NTf2 Properties=species:S:1:pos:R:3:forces:R:3
C -2.5920455266 -0.7141289535 0.5140841974 0.5487937814 -0.7659404159 2.1849612961
C -1.9322455212 0.0197040511 -0.6333073363 -2.2182740267 0.3036245649 -0.4018491165
N -0.5502326880 0.2976376177 -0.2789975042 -1.3604862732 -0.6126838643 -0.9925331202
C -0.1180265742 1.4099202833 0.3504611464 2.2580332657 3.1193719908 1.8838447017
C 1.2652087073 1.2694054069 0.4933124697 -3.1185319129 3.5095207781 1.2398522162
N 1.5791958470 0.0893477474 -0.0550168325 2.5732947392 -1.7540304785 -0.5938002022
C 2.9319508019 -0.4684918075 -0.1279738394 2.2580285493 0.3231586504 0.3807782626
C 0.4844175057 -0.5283112488 -0.5367617715 0.0609202574 0.0161371328 2.2736522218
H -2.0753676945 -1.6883446093 0.6568733236 -0.5232347857 0.1331677771 -0.1034679450
H -3.6667884999 -0.8579263398 0.3334319528 -0.0418014906 0.0637069546 -0.1638099290
H -2.4010527052 -0.1419913811 1.4564390798 -0.6145302798 -0.2773797005 -0.4285310038
H -2.4921168300 0.9765242551 -0.8206299021 0.6376699934 -0.6011664865 -0.2677150911
H -1.9293216885 -0.6369844727 -1.5269759112 -0.4298509989 0.4867470541 -1.5650640140
H -0.7276399322 2.2633714284 0.6878770943 -0.1746684983 -0.4170884384 -0.2835342266
H 1.8837967488 2.0034827398 0.9602931420 1.2944152259 0.4012165839 0.3584459945
H 3.6166620541 0.2660514833 -0.6382306628 -0.4523277926 -0.3930503250 0.5347967375
H 3.2947192600 -0.6829698461 0.9111692864 -0.0486974339 0.1222216531 -0.5989108582
H 2.9460844563 -1.3823818391 -0.7205624595 -0.2697097854 -0.5609109100 -0.2172836510
H 0.4828022792 -1.4939145152 -1.0254854729 -0.1293899979 -0.1852028810 0.5533116044
O -4.8697256832 -0.3282682357 -4.3746168425 -2.7726620106 1.7161545363 -4.9228166940
S -4.1187111750 -0.9317016305 -3.1947391117 0.8504784526 4.1995150838 -1.6380739147
O -4.5475355961 -0.2103703833 -1.9245676763 -1.0840830830 2.1916889435 5.8551664173
N -2.4806437838 -0.6799247953 -3.4636751681 3.9068117780 4.0189080700 2.6668747813
S -1.5588844752 -1.9708009042 -4.0428434982 -4.5409809045 2.0392652888 -2.7344699787
O -2.0331195545 -3.3226785225 -3.6753341148 -2.3398692358 -8.1467219200 3.6745189365
O -1.5951339201 -1.8848724087 -5.5583666846 0.8525533801 1.0665004082 -6.2916234070
C 0.1652352011 -1.8439861786 -3.5992633517 4.7092487063 0.8115469385 0.2766218735
F 0.8183043505 -2.9259595558 -4.1101792774 1.0963423170 -1.5108855525 -0.6239009168
F 0.7366093679 -0.7058138593 -4.0811705407 1.1098627189 1.6772828432 -0.4998299090
F 0.3370990634 -1.8647176946 -2.2307457418 0.3331496927 -2.4614065223 -0.7617269206
C -4.6573168332 -2.5902706463 -3.0590552599 -2.1221871808 -6.5821903949 2.3317330782
F -3.9914359961 -3.1898212823 -1.9834195425 0.6777540810 -0.8892421350 0.4344578019
F -5.9903343725 -2.5482705392 -2.6228874464 -0.9231230053 0.0243515740 -0.2844280954
F -4.5704207740 -3.3289694642 -4.1992922040 -0.0230948420 -1.0723156659 -1.2923389504
