24
energy=-20642.6982384977 config_type=IL_pair name=EMIM-BF4 Properties=species:S:1:pos:R:3:forces:R:3
C -2.7429869694 0.4420933872 0.4777951345 -2.4163042965 1.6224635052 1.8801470438
C -1.8603224307 0.2805605840 -0.7094164066 -1.1240535898 1.8215190958 -3.1176897030
N -0.5091427472 -0.1337901452 -0.4129782220 -0.0366905455 0.8330479649 -0.1522495312
C -0.0967054158 -1.4121157717 -0.3389732428 2.2179503706 -3.4214192661 0.3070782850
C 1.2569215832 -1.3938652420 -0.0357819361 -1.0454767396 -2.5665795335 0.4843426859
N 1.6466483721 -0.0955873441 0.0700155589 0.5904397076 0.7962345754 0.1801151557
C 2.9840593162 0.3988336916 0.3763819497 1.9486092449 -0.8781264600 -0.5543765523
C 0.5632693543 0.6689831078 -0.1614908762 -0.8565044262 3.8793968794 0.1966311977
H -2.1580919065 0.8914644260 1.3084470074 -0.2121246744 -0.6383542615 0.1032365646
H -3.5125840963 1.2276184432 0.2205618668 0.5475271818 -0.8119817800 0.1503193480
H -3.3142722247 -0.4602441267 0.7728729098 0.6493826135 0.1043274005 0.1443972195
H -1.7733652728 1.2830865087 -1.2134295072 0.0808170866 -0.6002129755 0.2357409639
H -2.2785844983 -0.4000939423 -1.4781581406 0.0901676576 -0.1644944478 0.1798248422
H -0.6563932013 -2.3224733239 -0.4772495360 -0.9438028363 -0.2366922225 -0.1809071775
H 1.9400715849 -2.2096094588 0.1054304120 0.5869731231 -0.7469726604 0.1242417169
H 2.9505393349 1.3953080229 0.8148263612 -0.1361341556 0.3867727330 0.4825517864
H 3.4508488616 -0.3658355834 1.0442564684 -0.0599978104 0.6806140754 0.0202493162
H 3.5385237432 0.4364604298 -0.5923325794 0.1290917096 0.0925389493 0.3892600713
H 0.5715666127 1.7692063368 -0.1438817123 -0.2006020010 -0.2247289285 -0.0210236011
B 0.6703130457 -0.7051532502 3.4016534756 0.3270249958 0.7028965251 1.0660685945
F 0.3361701371 -1.6234060573 2.3310437957 0.2602822857 0.0981188537 -0.0653646640
F -0.0309969356 0.5352900652 3.1631796867 0.3494159026 -0.7438435187 -0.1586732920
F 2.0860352728 -0.4611038945 3.4166623745 -0.8990165100 -0.2395404035 -0.3975013535
F 0.2739850720 -1.2502468225 4.6772818385 0.1450673369 0.2614525482 -1.2983323741
24
energy=-20643.6039537387 config_type=IL_pair name=EMIM-BF4 Properties=species:S:1:pos:R:3:forces:R:3
C -2.5755503779 -0.7527070536 0.1530938093 0.2144109716 -0.6008147869 1.7029497367
C -1.8883745259 0.1735727511 -0.8505113286 -1.0522150579 -0.9013480327 -0.1162982421
N -0.5422939348 0.3829676804 -0.2927199054 -1.1830283164 0.8405358806 -1.1253721619
C -0.1676850026 1.3646216709 0.5643073175 2.2794427999 2.3688535850 2.4519769388
C 1.1899503805 1.1750675464 0.8223049653 -2.1395921284 3.4983863319 2.0238532547
N 1.5860280945 0.0978323289 0.1208643134 1.2169554644 -0.8445020210 -0.7515070529
C 2.9264815324 -0.5010359250 0.0626953047 0.7678316894 -2.0948415474 0.7976322182
C 0.5189096887 -0.3769467142 -0.5560141340 1.0537685936 -1.2097394009 1.2010056028
H -3.4229880858 -1.2973754589 -0.2646780758 -0.3434076172 -0.0259805891 -0.1654474535
H -2.8831577310 -0.1217841685 1.0034058636 -0.3566592011 -0.3465786076 0.0677413307
H -1.8209354435 -1.4806527851 0.5511181329 -0.6967706122 0.2712974825 -0.4788672805
H -1.7785189807 -0.3659630904 -1.7978107164 0.1815794510 0.2579827267 -0.6911408173
H -2.4435818195 1.1271928458 -0.9199631694 0.3674390429 0.0911612711 -0.4083644726
H -0.7870932180 2.1466275060 0.9751713828 -0.6815723279 0.3346661029 0.0022037349
H 1.8133688380 1.7812076450 1.4676441109 0.5160332948 0.1208921321 0.2080296671
H 2.9782732143 -1.3082448656 0.8463621339 0.1381440949 0.6995140694 -0.2922421018
H 3.0253201172 -1.0369138079 -0.8958768536 -0.1494344763 -0.5208681477 -0.8806908443
H 3.7227433912 0.2309206193 0.2124179579 0.0937674565 0.4894942130 0.0627575712
H 0.5491038627 -1.2383867246 -1.2018111091 -0.8577419760 -1.3482571891 -2.8668976203
B 1.0187065820 -2.7779731175 -2.1999602964 0.8917547408 -4.2114609660 -1.1740163878
F 0.6597736641 -3.7864030715 -3.1836188616 0.6123405015 1.6264104436 1.2649652369
F 0.3889565873 -1.5357780382 -2.5567217291 -0.0089860202 -0.2140392113 -0.2369115059
F 2.4595985492 -2.6090455445 -2.1352313734 -1.3763690717 0.6133272110 0.3287315437
F 0.5010392915 -3.1938480057 -0.9103296248 0.5081243251 1.0925062777 -0.9349849687
24
energy=-20626.3969774834 config_type=IL_pair name=EMIM-BF4 Properties=species:S:1:pos:R:3:forces:R:3
C -2.6733690590 0.5106114887 -0.6654718923 -2.2915311232 -1.0698699608 -0.3356096931
C -1.8881912998 0.2048148891 0.5866930792 -1.6917695831 1.9026930927 2.2914214811
N -0.5226994384 -0.2120721681 0.2992660054 -2.1465130644 2.0501476238 1.2876909064
C -0.0792645187 -1.4631412230 0.0909722206 2.6735957640 -2.2980666969 -0.2996374912
C 1.2971390438 -1.3534850188 -0.1441739722 -18.8063199309 13.0220592564 -1.3209979281
N 1.6236801066 -0.0501319038 -0.0683542730 -0.6853782421 0.3895432249 0.3032465826
C 2.9738943148 0.4492142477 -0.2586675394 2.4908320878 1.8466187510 0.6193758883
C 0.4976418667 0.6561940292 0.2060341386 0.4473472584 3.6320590400 0.4387581409
H -2.5621565802 1.5571145617 -0.9544224328 0.2291582230 0.0575021692 -0.6320489005
H -3.7485635159 0.3265615044 -0.3922297797 0.6914210065 0.4061845551 -0.5268977775
H -2.4060679690 -0.2409035593 -1.4219740370 -0.0374018615 0.4976954833 -0.5411375683
H -2.4178093253 -0.5440869601 1.2106852018 0.4843661223 -0.2454552183 -0.1951524068
H -1.8925702928 1.1629825611 1.1773227043 0.4640526997 -0.8117750192 0.0058075852
H -0.6735246371 -2.3812754807 0.1027855375 -0.3629582067 0.3418232988 0.0441312812
H 1.9376449974 -2.1933120076 -0.3453796320 -60.7400640268 23.2279058432 -23.8621638498
H 3.6458762262 0.1292363590 0.5828158289 -0.4879649745 -0.2055644322 -0.5226979250
H 2.9985771550 1.5564684086 -0.2343546218 -0.3608154547 -0.0774845873 -0.0312076982
H 3.4284998323 0.1533920198 -1.2142365030 -0.1851659523 -0.4904701040 -0.2241771352
H 0.4612630934 1.7318182521 0.3233764771 -0.3592489265 0.5268539891 0.2639029441
B 2.9099605248 -3.6172277308 0.5878582608 1.4270129861 -5.7499401250 3.5243648778
F 4.1555695564 -3.3477747497 1.2781431603 -2.2098609055 0.2776161562 -1.5227737912
F 3.0445874117 -4.7604708567 -0.2846537045 -0.1954115735 2.2476189343 0.6825144473
F 1.8420536625 -3.9110373799 1.5377680665 1.5019039308 1.1348308018 -1.6118012334
F 2.4835391441 -2.4400703821 -0.1618433638 80.1480775502 -40.6188521029 22.1632873383
24
energy=-20644.2179095640 config_type=IL_pair name=EMIM-BF4 Properties=species:S:1:pos:R:3:forces:R:3
C -2.5388120126 -1.0489667233 -0.1451211251 0.1775081903 -1.6467396222 -0.2891315253
C -2.0002349448 0.3375945601 0.2190052653 -2.3625378582 0.0776631824 -2.0594912805
N -0.5635595433 0.3818742704 -0.0891176060 -1.3384683052 -0.0166040236 2.3319802984
C -0.0032431671 0.7553736830 -1.2551997433 1.8325691700 1.0195158840 -3.1725480257
C 1.3644620886 0.6404373060 -1.0873164470 -0.9276209635 1.4441830581 -3.9878857894
N 1.6003833828 0.2042714214 0.1640352118 0.2985450361 -0.4104091339 1.7668738150
C 2.8995461546 -0.0569947373 0.7700461867 2.4654602648 -0.5222783670 -0.2565250021
C 0.4063252720 0.0376332191 0.8013397457 0.1330807456 -0.0449110248 -1.3928124015
H -2.3595090565 -1.7238923580 0.7318130200 0.0334231770 0.3664541854 -0.1306659876
H -1.9967279919 -1.4373154125 -1.0478287367 -0.5822086153 0.1510346678 0.5927923463
H -3.6149783975 -0.9654361016 -0.3706412269 0.1100992467 -0.1761176223 0.0996754019
H -2.5630368119 1.0341843491 -0.4479315294 0.8867102239 0.3731860627 0.3620574879
H -2.1918279546 0.5526291858 1.2730698852 0.1631150543 0.6753474932 2.6106787729
H -0.5430695662 1.0840118381 -2.1531581318 -0.1506790304 -0.0750813161 0.2912361544
H 2.0906290654 0.8716868165 -1.8562950347 0.7604219570 -0.0282647359 0.0069882894
H 2.8403463654 -1.0084405273 1.3309281271 0.1720347682 0.0862470106 0.0128572842
H 3.6545597140 -0.1217871246 -0.0629854623 -0.5747662773 -0.2642964250 0.6203083889
H 3.2472750840 0.7594505771 1.4268102727 -0.3909638408 0.1441787657 0.2533319060
H 0.2714723198 -0.2963142419 1.7985473285 -0.6364947583 -0.4023165025 4.5521796194
B -1.3345685573 -0.3467595981 3.3730642828 -1.3004097661 -1.2315457989 2.8589730483
F -1.4673517430 -1.4214592340 2.4304292515 0.1455373847 0.7033770058 -0.0547869070
F -2.1433707343 0.7893227680 3.0013149302 0.6398642069 -0.6899251954 -1.4235529778
F 0.0627881518 -0.0095060815 3.4730453984 -0.0408741156 -0.1078835552 -1.8438163316
F -1.7641831412 -0.7932897053 4.6880883061 0.4930396872 0.5713505333 -1.7558427162
24
energy=-20643.3401477344 config_type=IL_pair name=EMIM-BF4 Properties=species:S:1:pos:R:3:forces:R:3
C -2.7321981973 0.5542323974 0.1342127363 -1.5977371929 0.6682881390 0.7082724418
C -1.8718319592 -0.2089116220 -0.8440144595 -1.7855755457 1.8787876805 -1.2762073343
N -0.5001965018 -0.3200587210 -0.3870807552 0.0187098775 0.0154801729 -0.0931524290
C -0.0022563609 -1.3272910257 0.3809045984 0.5266386271 -3.0861289976 2.2577070295
C 1.3309949719 -1.1097931381 0.6223371179 -1.7624128879 -3.0921612772 1.4953413442
N 1.6362469325 0.0360109938 -0.0048957137 1.3563270948 1.6886544026 -0.7181987172
C 2.9450002661 0.6542706791 -0.0199405936 2.2835322139 1.9750278310 -0.9590617897
C 0.5234751103 0.5130396806 -0.6165017872 0.4439066988 2.8812489317 -1.6362805358
H -3.6669803327 0.8631033514 -0.3803541187 0.2985495043 -0.2360254300 0.0896988625
H -3.0335499658 -0.1266751415 0.9566506663 0.2974917345 0.4809810548 0.0654130218
H -2.2603580472 1.4806736751 0.4857622279 0.1309862444 0.0016426072 0.4051624109
H -2.2548238181 -1.2462638588 -0.9376886691 0.6159640841 -1.7456194786 -1.2968682684
H -1.8737725849 0.2820087390 -1.8405729460 0.2498547803 -0.1420097653 0.2320659388
H -0.5915281183 -2.1827643378 0.7470652577 -1.5753749534 -0.4108071205 -0.2968104585
H 1.9489295800 -1.7738599626 1.2105282167 0.8633849845 0.0923847371 0.1638502442
H 3.7022670084 -0.0483993661 0.3578158482 -0.1029908493 -0.0170125440 0.4376864959
H 2.9500831365 1.6309707814 0.5294347313 -0.0073041974 -0.6882353661 0.1133989794
H 3.2521072891 0.8987410325 -1.0639753866 -0.3020179525 -0.1626490524 0.1778034309
H 0.4983915917 1.4309658433 -1.1952094601 -0.0757696767 0.3682611830 -0.2962961793
B -2.0908404769 -3.4341115305 -0.6502905118 -0.4233227416 -3.0964005802 0.2653292668
F -2.4214815464 -2.7166278429 0.5618530509 0.9988477122 0.3298794334 -0.7616167410
F -3.1901851087 -4.3006575182 -0.9975703012 1.2382263810 1.1971701859 0.2501955691
F -0.8979746546 -4.2285600606 -0.4064717441 -1.0303909205 1.1724003851 -0.1595598761
F -1.8111665383 -2.5144809813 -1.7320528979 -0.6690391213 -0.0565680113 0.8281382091
24
energy=-20642.8478611658 config_type=IL_pair name=EMIM-BF4 Properties=species:S:1:pos:R:3:forces:R:3
C -2.6608367630 -0.0379787477 0.8190610680 -2.1395234640 0.4579765845 2.6203749991
C -1.9435616407 0.3546387934 -0.4319551071 -2.0254866820 1.4657274564 -1.9825673792
N -0.5616016224 -0.0331235143 -0.4839777275 0.2112637002 0.8884710959 0.7969416785
C -0.0104752151 -1.1752231482 -0.9570409225 1.2946259459 -4.3547163377 -1.9514562826
C 1.3634964029 -1.1368322428 -0.8145539243 -2.5126036116 -1.8322464259 -1.1382198596
N 1.6061038946 0.0746263653 -0.2375681776 3.6956919722 -0.8923757458 1.4452073540
C 2.9688505576 0.4919986549 0.0774775941 1.8887393163 0.7037703529 -1.3063652194
C 0.4741317914 0.7365661200 -0.0372518712 -1.1254172343 4.4631604812 -0.3824293146
H -3.5404332477 0.6619149611 0.9166726744 0.6643474404 -0.6812197058 -0.0421592136
H -2.0321624226 0.1499508041 1.7250226246 -0.3443173455 -0.4812328104 -0.5189837597
H -3.0931592091 -1.0590047015 0.8020019321 0.6078710703 0.1528742154 0.1281863802
H -2.4432156440 -0.0927842501 -1.3127673693 0.0354444843 0.0659840459 -0.0745762737
H -2.0230045666 1.4641407240 -0.5452329232 0.4445712364 -0.4198240980 -0.1366991713
H -0.5640963636 -2.0164415406 -1.3927261923 -0.3450792464 0.3191873864 0.0952969408
H 2.0929954707 -1.8845846475 -1.0907643342 0.5836960222 -0.1523235110 -0.0370879191
H 3.5777307567 -0.3736386000 0.4035135719 -0.3359420889 0.0984787746 0.4288191526
H 2.9517600819 1.3148123625 0.7970344975 0.1451175804 0.1879483077 0.3281198700
H 3.4305454033 0.8284693870 -0.8948624647 -0.2411466711 0.2641137659 0.6167187071
H 0.4069323358 1.7324932204 0.4128314011 -0.1514244788 0.0070822490 0.1806253448
B 1.3555699876 2.2970493334 -3.2891747599 0.8967138229 0.8158201142 -2.4576781504
F 1.0583793791 1.3575241873 -4.3557511230 0.0975325139 0.5718748371 1.4682071802
F 0.7483726424 3.5600379491 -3.6199675612 0.1926711065 -1.1224551857 0.8083750346
F 2.7864245532 2.4868035924 -3.2274662389 -1.1616460766 -0.4543334983 0.5213491047
F 0.8642275731 1.7913284970 -2.0257782149 -0.3743535395 -0.0663551971 0.5794049579
24
energy=-20642.4895659935 config_type=IL_pair name=EMIM-BF4 Properties=species:S:1:pos:R:3:forces:R:3
C -2.5738328929 0.8369973102 -0.1874975288 -0.0392492267 1.2308790279 0.0424582182
C -1.9863392347 -0.4911319905 0.3094374719 -2.7197692396 0.4250975652 0.1178363472
N -0.5580629812 -0.4286981155 0.0558229541 -1.5092912362 -0.2813806304 2.6461802178
C 0.0074335817 -0.8427253340 -1.0762103528 3.5753737419 -0.8668153616 -3.1747710674
C 1.3788009784 -0.6278712016 -0.9556344805 -1.3014200838 -1.2046638865 -2.4531114298
N 1.5882066978 -0.0783939762 0.2775509145 1.3403309443 0.5238672292 0.7946750323
C 2.8874662149 0.3167335857 0.8421532970 1.2556230619 1.8505784774 -0.6608766496
C 0.3910745867 0.0476520760 0.9096165995 -0.4595237737 0.7831856873 1.7479784143
H -2.3648082213 1.6141277976 0.5801559023 -0.5916204755 -0.1572386681 -0.4090204321
H -3.6464191693 0.7436800178 -0.4396640934 0.2424422546 0.1481527193 0.3268276677
H -1.9819376909 1.1378985264 -1.0800285020 0.1476039760 0.6686768292 -0.1114355305
H -2.2132866569 -0.6401527796 1.3818092987 0.3066923149 -0.3636572409 -0.0489047409
H -2.4569769467 -1.2611080855 -0.3210167669 0.4441371626 -0.7112700600 0.2401084852
H -0.4928149676 -1.2645141670 -1.9276704371 -0.7774257615 -0.2823386392 -0.5694664013
H 2.1344337330 -0.8545849371 -1.7004980957 0.5733705704 0.1116514443 -0.0564662142
H 3.5765362405 0.5000262407 -0.0186165275 -0.2135025790 -0.3354833796 0.3956865311
H 2.7886786276 1.3134674639 1.3513661176 -0.0584013601 -0.8634928268 0.0848243091
H 3.2836462756 -0.4737568562 1.4832373521 0.2086044189 -0.2514708331 0.5339092655
H 0.2382018251 0.4523544248 1.9039553908 -0.1647488201 0.1741418433 0.3747695562
B 0.0151986217 2.9064885135 -2.6539285815 0.1219859707 0.2788983367 -0.9202660337
F -0.3578081188 2.0073661501 -3.7322663391 0.4048565685 0.5741467761 1.0630326527
F -0.5425926961 4.2119202264 -2.9586509827 0.3472620617 -1.1697113887 0.6050463154
F 1.4612021369 3.0505376902 -2.6018606594 -1.4467231017 -0.4140654648 0.2631871314
F -0.5160735144 2.3769569173 -1.4078095309 0.3178047580 0.1460774337 -0.8380369101
24
energy=-20642.2055076977 config_type=IL_pair name=EMIM-BF4 Properties=species:S:1:pos:R:3:forces:R:3
C -2.6046354157 0.2245486959 -0.7927260420 -1.4581217996 1.1410043819 1.7100000106
C -1.8986509858 -0.7667731932 0.1308277575 -0.9745106912 -2.0978384578 -1.9435570500
N -0.5498716810 -0.2687092132 0.3352079054 -0.2404082318 -0.9323383942 0.4903681371
C -0.1670836547 0.5685554152 1.3177691289 2.4826568504 2.2662002446 2.1382960158
C 1.2010169886 0.7957163951 1.1559886512 -2.3316090354 2.4460222923 4.0325933330
N 1.6217951170 0.0992685609 0.0882326256 1.1187021248 0.1615895221 0.1159952294
C 2.9532433545 0.0383303357 -0.4438332286 2.6225010407 -1.5364903202 -1.5075795101
C 0.5527008762 -0.5376847234 -0.3956847460 -1.0881486466 -2.9837325539 -3.5952347531
H -1.8703382801 0.7411926461 -1.4099059718 -0.0627458350 -0.0533891865 -0.6829636868
H -3.3687426467 -0.3556036632 -1.3370523991 -0.3251299768 0.1353906623 -1.0499710253
H -3.0730960371 0.9742335606 -0.0984359866 0.0319083816 -0.2542140186 -1.0339383874
H -1.7835779501 -1.7308083520 -0.4371230353 -0.2737232046 0.0716520922 0.0396604702
H -2.4596924870 -0.9349994478 1.0624176574 0.3869248304 0.0507516349 0.3835275532
H -0.8342421435 0.9587736053 2.0621568182 -0.6235675567 0.2990385558 0.6369138992
H 1.7925250049 1.4321613210 1.8011089912 0.7110583010 0.1941439268 0.0218546828
H 3.6843800926 0.5504234286 0.2010859605 -0.2672176065 0.5087303053 -0.0508601014
H 3.3071720684 -1.0296279534 -0.5008014051 -0.4324859829 0.5449005758 0.0259674947
H 2.9226680652 0.4215109403 -1.4823071585 0.4014340869 0.2911216888 0.1114432655
H 0.5744297143 -1.1805083585 -1.2569255230 -0.1134925572 -0.6434302403 -0.7775945974
B -3.4214237989 -2.6203697702 -2.6715719258 -0.3421413579 -0.8924099236 -0.1258164656
F -3.6631734575 -3.5675865106 -3.7445357145 0.2044560546 0.7583230634 0.9999784319
F -4.1776453150 -1.4238346428 -2.9536379477 0.8751489099 -0.3628914567 0.8134769225
F -2.0000450014 -2.3490915078 -2.6210254850 -0.7857888973 0.1757205881 0.4757643630
F -3.8354570009 -3.1864562527 -1.3971968822 0.4801072731 0.7057273642 -1.2320647590
24
energy=-20642.3451564998 config_type=IL_pair name=EMIM-BF4 Properties=species:S:1:pos:R:3:forces:R:3
C -2.6620652363 0.4078226881 0.3658643425 -2.1301804906 0.7204103646 1.0836801029
C -1.8811803661 -0.1888065486 -0.7981218261 -0.6496528450 2.3131126180 -0.6236471834
N -0.5066337659 -0.3305852266 -0.3498770166 -0.7785982707 -1.1986560578 -0.6070591865
C -0.0074779999 -1.4427870634 0.2651666462 2.7227293165 -1.5021977789 1.3697368403
C 1.3355171501 -1.1579176649 0.5226046536 -1.5865812357 -4.2497133735 1.3641208567
N 1.6238498429 0.0860756711 0.0735377715 1.1591489232 0.1404134989 -0.0412088506
C 2.9195316191 0.7495040228 0.1562134763 1.5499932855 0.7622217651 0.1781155609
C 0.4854416504 0.5741347157 -0.4557388843 -0.9919538359 4.1778375530 -2.0659440114
H -3.2606031317 1.2944369042 0.0379661987 0.2915062004 -0.6299211807 0.0657419380
H -1.9947244654 0.7701189081 1.1743017909 -0.2666715036 -0.3886984355 -0.1473790720
H -3.3813497829 -0.3576577606 0.7361341686 0.3901637698 0.5434310704 0.3195773639
H -2.3217012560 -1.1068117194 -1.1966279952 0.3008091043 -0.5557454114 -0.0383559069
H -1.8683552046 0.5635655949 -1.6358484124 -0.5754004327 -0.9032566842 -1.3271376755
H -0.5533473316 -2.3547024713 0.4999825965 -0.3673652881 -0.0751418625 -0.1009501321
H 2.0095469552 -1.8555163584 1.0102171989 0.6909008192 0.1521150923 0.1153136365
H 2.9262120921 1.3584022550 1.0828034606 0.4252062122 -0.1552502250 0.0650675881
H 3.0306505261 1.4314240975 -0.6972558960 0.0035679699 0.1370032697 -0.2946881260
H 3.7464382094 -0.0065119063 0.1225623964 -0.5661228217 0.4231460019 0.2578253559
H 0.3602504953 1.5658118622 -0.9138846702 0.0960609998 -0.1250199407 -0.0087397071
B -2.1867048105 0.6599940971 -4.5384828131 0.3869516665 0.4854918127 -0.3033921718
F -2.5406689942 -0.3063769866 -5.5453043923 0.4297079517 0.9672106467 1.0245560055
F -2.8676899681 1.9230130535 -4.7574195580 0.7201580703 -1.3077168272 0.1939114079
F -0.7478890961 0.8871418263 -4.4748500742 -1.4627719214 -0.2622623541 -0.1797771846
F -2.5866280479 0.1423137055 -3.2329323279 0.2113648114 0.5234548536 -0.3012028152
24
energy=-20637.8661335861 config_type=IL_pair name=EMIM-BF4 Properties=species:S:1:pos:R:3:forces:R:3
C -2.5521248180 0.8061171544 0.2337070092 0.6010318316 1.5251603330 0.6187713950
C -1.8836659520 -0.0815486812 -0.8141513716 2.5842882215 5.6451990704 2.4112635106
N -0.5727522100 -0.3908196670 -0.2791634895 1.0298214056 3.5428193639 -1.4247048784
C -0.1717746819 -1.4042479167 0.4985477156 2.1831534399 -2.6170969117 2.5323984568
C 1.1909143467 -1.2401702115 0.7301894512 -1.1257567045 -3.1832550143 1.8854608048
N 1.5966928204 -0.1243483839 0.0860961887 0.4997214198 -0.1753587675 -0.7155348737
C 2.9386028498 0.4062931475 0.0675441824 1.1326023785 2.7643725104 -0.3425584092
C 0.5046251067 0.3916417075 -0.5322594752 0.3505954805 1.8155660154 -1.1780476406
H -3.5367845736 1.1209198558 -0.1492541733 -0.0896361536 -0.3434381987 0.4527529074
H -1.9492479315 1.7402391709 0.3797570573 -0.3959901654 -0.4788350687 0.2656197725
H -2.5805171358 0.2326712178 1.1709936000 -0.5676577680 0.4181350485 0.2773496946
H -1.8064872603 0.5012378408 -1.7476872331 1.0556193104 -0.3617843570 0.0353676530
H -2.5299656606 -0.9771151204 -0.8715192575 2.9304874957 1.7246645051 5.2423365762
H -0.8077444038 -2.1882045003 0.8631858206 -0.7675191544 -0.5341683378 0.1862680597
H 1.8456264680 -1.8794703329 1.3214192033 0.2612202595 0.0230754373 0.0333659838
H 3.7293842597 -0.3308256716 -0.0522948383 0.2196097569 -0.7459283320 0.1349549615
H 2.9976962706 1.1287153437 -0.7793371063 0.1054690184 -0.3080826673 0.2483722235
H 3.0492187906 0.9990044188 0.9983896185 0.5428370383 -0.1933998567 0.0155984310
H 0.5383037149 1.2899106285 -1.1241629019 -0.2284816780 0.6526741755 -0.4756390951
B -2.7436463616 -1.7919471186 -1.9411604112 -0.8629395124 -6.6070547581 -7.7983317979
F -3.4614773945 -0.5834569828 -1.5975284784 -7.5035168703 -1.3948127774 -4.1258989632
F -2.0279987694 -2.2923294942 -0.7782150544 -1.5588415669 -2.4856806084 -0.4462792154
F -3.6807262198 -2.7856041096 -2.3959249899 1.2031899537 1.4978429312 0.7633526957
F -1.7437151850 -1.5213068236 -2.9646687477 -1.5958268951 -0.1837779679 1.4035818589
24
energy=-20641.9134434915 config_type=IL_pair name=EMIM-BF4 Properties=species:S:1:pos:R:3:forces:R:3
C -2.6445574895 -0.3643183109 0.6168926210 -1.0720514239 -1.2542486054 2.0030630292
C -1.9094819965 -0.1007152377 -0.6801757431 -0.8651159708 0.2633631131 -0.4499698889
N -0.5264122913 0.2595253177 -0.3874218639 -1.7822499191 -1.0918931572 -2.4909326232
C -0.0136956178 1.4930515347 -0.1689250040 -0.1566507318 2.8677875644 1.0722178853
C 1.3435362888 1.3120399433 0.0648839478 3.4994347642 3.3810471915 -2.6193468921
N 1.6041680652 0.0045785442 -0.0174665513 1.4965068838 -1.6973879504 -0.1066466069
C 2.9169902495 -0.6210306480 0.1636692362 1.4557103478 -1.2948391653 1.0815210692
C 0.4716490836 -0.6613577998 -0.2942536070 0.0669212681 -3.4839072599 -0.1579501013
H -3.2819854748 -1.2728704919 0.5200918145 -0.0257648961 0.6392841372 -0.0266310398
H -1.9378784568 -0.5976118176 1.4529332845 -0.3946227677 0.4611855350 -0.5418596469
H -3.2624342927 0.5076262986 0.8681819292 -0.0693409595 -0.1269110655 0.4021263333
H -2.4106857869 0.7325022555 -1.2102756921 0.2943731033 -0.1730942565 -0.3232874701
H -1.9253304084 -1.0181651343 -1.2714932619 0.2367641673 -0.2096655019 -0.7233024127
H -0.5841213908 2.4120460557 -0.1829065417 -0.4748882559 1.0781332845 -1.6841200315
H 2.0629325458 2.0906092573 0.2762441075 0.4078454877 0.1041589754 0.2076832820
H 3.2052480626 -0.5805685715 1.2507974225 0.0565364970 0.4155603196 -0.7681683824
H 3.6802251240 -0.1736378300 -0.5016446665 -0.0971051651 0.2848396785 0.2775002892
H 2.8589952331 -1.6969860717 -0.0764806401 -0.2724690682 0.0284930114 -0.2100571016
H 0.3528385529 -1.7247172938 -0.4226507916 0.0604094604 -0.5062513985 -0.1600320332
B 0.0723158126 2.6167654821 2.3880759130 0.6363055731 5.1934761825 3.3574447047
F -0.1845384056 1.5604659584 1.4464506666 -2.6301536494 -1.6101575031 4.3970750855
F -0.6022901613 3.8094123979 1.9085669176 0.5937360308 -1.7139146406 -0.0873396935
F 1.4902420385 2.8960909228 2.4526976941 -1.5952716055 -0.9670255995 -0.4014838980
F -0.4434446209 2.3312660303 3.7060250077 0.6280711664 -0.5692400660 -2.0469650326
24
energy=-20643.2019734061 config_type=IL_pair name=EMIM-BF4 Properties=species:S:1:pos:R:3:forces:R:3
C -2.6611741033 0.6499587025 0.2508974202 -0.6860758214 1.5904274020 0.6089136245
C -1.8695805889 -0.6504010634 0.3817744854 -3.2919440262 -0.8554031643 1.3790140362
N -0.5307442072 -0.4626596954 -0.1156997248 -0.3805152232 -0.5424006679 1.4004832545
C -0.0710965441 -0.6440239916 -1.3686223219 2.6174722141 -0.1377782099 -3.4911034615
C 1.2925473073 -0.3323738547 -1.3452566627 -1.8878747386 -1.1150323317 -3.4789880552
N 1.6050002220 0.0251532655 -0.0804027585 1.4183537945 0.5187440692 1.5399998981
C 2.9025681030 0.4368973840 0.4489519456 2.6314142243 0.6299926167 0.0028472792
C 0.4905772533 -0.0538081797 0.6740753449 -0.6365041391 0.8919980165 3.2501990952
H -3.4891642917 0.6986938096 0.9964040311 0.3717303263 -0.3426084425 -0.5179201400
H -3.0712006199 0.8121381513 -0.7515929749 0.0550895777 -0.0682351484 -0.1918843656
H -1.9456942637 1.4658434800 0.5438836742 0.0933219995 0.2004635848 0.4351053236
H -2.3896399294 -1.4786235782 -0.1323233737 0.4209460146 -0.1976855057 -0.3126267039
H -1.8450388534 -0.9190580889 1.4585534607 0.4781311223 -0.0192776691 -0.1839885597
H -0.6470695455 -0.9696284687 -2.2323739357 -0.4356665976 -0.0995506540 0.0082411943
H 1.9887033850 -0.3640042599 -2.1729167127 0.5204069066 0.0749752244 -0.2547838868
H 3.0114766553 1.5477104536 0.4152090889 -0.3482644442 -0.2412360788 0.3756129971
H 3.7190903818 0.0189655919 -0.1803625836 -0.4260431274 -0.0042590845 -0.1096490093
H 3.0865091215 0.0453011765 1.4673607799 -0.5116525006 0.2327368647 0.0565471334
H 0.4239305180 0.1739191657 1.7424408178 -0.1885211446 0.3503040869 0.2404616010
B -0.0214126340 3.1528628467 2.2239193955 0.7918555046 2.1363644070 0.7529116092
F -0.2703703930 4.3500361714 1.4239623779 0.1639698407 -1.9530434557 0.8810974352
F -0.7744637265 2.0177345137 1.6993661965 0.3096606765 -0.4352331336 -0.5593126342
F 1.3915084597 2.8440499116 2.2177467585 -1.2339786354 -0.2160717903 -0.4030672319
F -0.4279705669 3.3745358983 3.5921984686 0.1391298018 -0.4058370823 -1.4278865590
24
energy=-20613.4836317936 config_type=IL_pair name=EMIM-BF4 Properties=species:S:1:pos:R:3:forces:R:3
C -2.7543284159 0.2513601499 0.2606846476 -1.9783074900 -0.0839778494 0.7568286255
C -1.8335507003 -0.1728319398 -0.8598721517 -1.1391707565 -0.0084995379 -2.0400874246
N -0.4674512737 -0.3128399485 -0.3812623063 -1.3379070261 0.4089043515 -0.8265258035
C 0.0968554424 -1.4370958776 0.1226047972 -13.9994665420 7.1403785084 -6.0230084491
C 1.4213288769 -1.1726349613 0.4717391860 14.6840105333 53.9772910468 -6.9805391743
N 1.6322892839 0.1349393022 0.1640473370 0.4162869352 4.7632816300 -1.2525804486
C 2.8570277203 0.9017056948 0.3369650622 1.0381270353 1.8065047802 0.2811039071
C 0.4974840505 0.6186729277 -0.3390181647 -1.3088607332 5.9142563004 -2.2200356405
H -2.3119045680 1.0488215151 0.8699722718 0.1259332832 -0.1472247394 0.2896692383
H -3.7001729512 0.6527377927 -0.1590899382 0.2618147584 -0.1760569562 0.0716800625
H -3.0198247595 -0.6553099072 0.8451300819 0.2164085348 0.6827567366 0.3129305469
H -2.1182525375 -1.1835658095 -1.2370435590 -0.0218362596 0.4132501190 0.0170649679
H -1.9122472867 0.5422321895 -1.7062373885 0.3878733937 -0.0668145124 0.0709403772
H -0.4265407387 -2.3692367719 0.2222416143 -2.8404616128 0.0049311776 -0.7137523843
H 2.1423968300 -1.8586723504 0.9000989587 25.0696050734 12.5249793954 6.5408142412
H 3.1941471054 1.2492724805 -0.6539039681 0.4394143699 -0.0614682999 -0.0399114179
H 2.6996972863 1.8108677025 0.9647088297 -0.2252313621 -0.2983752747 -0.1944233181
H 3.6368126348 0.3073210982 0.8538178200 -0.2902545439 -0.4438299626 -0.3552564815
H 0.3662340009 1.6442567131 -0.6755831299 -0.3403311407 0.2589375315 -0.2033070369
B 1.9951779346 -3.3338725430 1.0306189896 4.3913466382 -11.0137137672 3.4380713784
F 1.7615605003 -4.3819168674 0.0723684032 -0.1493395461 2.4934549216 0.9142092140
F 1.2533163248 -2.1519137669 0.6591319315 -22.0988125807 -79.5354678387 10.6342297137
F 3.4069450953 -3.0631413484 1.1228979527 -1.5840471426 -0.0833062065 -0.3204330159
F 1.4990157707 -3.7789831502 2.3155538104 0.2924288214 1.5339053920 -2.1710568903
24
energy=-20642.0523900179 config_type=IL_pair name=EMIM-BF4 Properties=species:S:1:pos:R:3:forces:R:3
C -2.5389737738 0.4404551656 0.7697294898 -1.0307148255 0.8040524112 2.2592834738
C -1.9514541132 0.0622561670 -0.5705350329 -1.4061583968 0.0766624202 -0.9659699996
N -0.5636379890 -0.2659477087 -0.3397520540 -0.4844585319 -0.2411764488 -0.9434735166
C -0.0565149845 -1.4928532696 -0.0363314026 2.0970045301 -2.7209189937 0.8244265920
C 1.3209351946 -1.3264704425 0.0952851081 -2.0582889005 -2.5382394114 0.2775314384
N 1.6141132189 -0.0134695373 -0.1295711171 0.8349052609 0.0215686521 -0.3024954770
C 2.9186026953 0.6243020858 -0.0999667574 0.8474910816 1.9015405282 1.4828484385
C 0.4494778593 0.6261811571 -0.3952973035 -0.4055881920 3.8959491184 -0.8362006368
H -3.2839331129 1.2508448370 0.6487394551 0.2777765745 -0.1068623109 0.1816777439
H -1.7365444667 0.7477889572 1.5024728674 -0.8252911509 0.0063534332 -0.8634296314
H -3.0604423895 -0.4089948553 1.2224274213 -0.1028730543 -0.2323283507 0.1149030216
H -2.0043030793 0.9083790085 -1.2624009346 0.1387753775 0.2910392308 -0.4343247360
H -2.4530331687 -0.8049581796 -1.0436594215 0.0398391544 0.0511059185 0.0681880525
H -0.6249107083 -2.4288335114 0.0810450362 -0.1234654942 0.3956640811 -0.1686407588
H 2.0264499819 -2.0897085810 0.3306545434 1.1628520100 -0.7423826220 0.2003779923
H 2.8910580719 1.4597753974 -0.8174392982 0.4585237279 -0.2185147868 -0.4627103868
H 3.7364907735 -0.0954438087 -0.2435190978 0.0251764716 -0.0798695026 -0.3188433423
H 2.9979304297 1.1097555449 0.9109471530 0.4341802172 -0.3585062611 -0.3953315962
H 0.3186895608 1.6969415737 -0.6228286547 0.1849068896 -0.3485174599 0.0224234620
B 1.8162519855 -2.5876577779 -4.1542954687 0.5132799130 -0.0456366117 -0.2910884055
F 1.5005468518 -3.5745188997 -5.1777662119 0.2227437906 1.1692251089 1.1843488554
F 1.2012352390 -1.3072176542 -4.4515590600 0.3343345244 -1.2045874087 0.3127180249
F 3.2571382384 -2.3715478501 -4.1032102029 -1.1896390679 -0.1942574811 -0.0648464186
F 1.3951102347 -3.0732196589 -2.8593096605 0.0546734727 0.4167215120 -0.8809273814
24
energy=-20639.5412046263 config_type=IL_pair name=EMIM-BF4 Properties=species:S:1:pos:R:3:forces:R:3
C -2.6202374478 0.5910117426 0.3898003899 4.2885201987 9.6291975188 2.6661128148
C -1.8865121015 -0.1903545294 -0.6927939018 -1.6946349672 1.9128396689 -2.1628726211
N -0.5112705864 -0.3852143423 -0.2632869365 -0.5646671997 0.2042754757 -1.3820894680
C -0.0262237506 -1.4256852044 0.4575836845 2.3185776270 -2.1144116277 2.1129306134
C 1.3227526771 -1.1860101856 0.6265079636 -1.0860789351 -2.9542229485 1.5149676009
N 1.5873644626 -0.0295094155 0.0095634066 3.7922616180 1.5617850223 -0.1227141198
C 2.8994814953 0.6281929944 -0.0749657072 -0.3694586247 2.7983241219 0.1339233816
C 0.4917397785 0.4754058569 -0.5375267246 -1.8136451875 1.8429160998 -1.5173996799
H -2.8408858369 1.6376602517 0.0295128883 0.6283589990 -0.7242504037 0.0996791450
H -3.5286957056 0.0594877283 0.7219197971 0.7562038592 2.6036673819 0.5913685976
H -1.9677667355 0.7145523976 1.2907457053 0.0757595806 0.0709214677 -0.7761760440
H -1.8751322745 0.3699108436 -1.6361042371 0.4653283960 0.3934296018 -0.2829769360
H -2.3989486190 -1.1493791359 -0.9003049350 1.3465570103 -0.5182742692 0.2470451033
H -0.5840741970 -2.2859705190 0.8337335645 -1.5084492314 -0.1071884135 -0.4971706240
H 2.0596966004 -1.7753515572 1.1408213205 0.6512196097 -0.3320312672 0.3557679707
H 3.1246248214 0.7483806283 -1.1382580806 0.7734726124 -0.3491235730 -0.3919286723
H 3.6526297277 0.1325488946 0.5359216798 0.3542654920 -0.4646796240 0.0038494681
H 2.7153578957 1.6746709501 0.3080631564 0.5784408728 -0.7475266941 -0.0429065225
H 0.3860997963 1.3956526012 -1.1009330338 0.0746625053 0.4235456462 -0.2253974096
B -3.0938147336 -2.0199648680 0.8447050457 -1.2775724269 -2.8208744980 3.2701837626
F -3.8020861232 -0.9079255725 0.2260145928 -6.9884105921 -11.0866148222 -1.3397462840
F -2.0793549415 -2.5526027341 -0.0475838732 -1.4542061618 -0.2770292431 0.2049750185
F -4.0547883486 -3.0489072533 1.1690131081 1.2890793055 1.3820426207 -0.7100388410
F -2.4310763870 -1.5903494704 2.0645030587 -0.6430922535 -0.3312619672 -1.7546068012
24
energy=-20642.9451772305 config_type=IL_pair name=EMIM-BF4 Properties=species:S:1:pos:R:3:forces:R:3
C -2.5295007440 0.8528638745 -0.3131763248 0.4547586965 1.2656711015 -0.5314672210
C -1.8721718420 -0.4635646399 -0.7481370536 -1.9418168918 0.6681421319 -0.9570830215
N -0.5442104888 -0.4313409696 -0.1220125201 -1.3181328897 -0.7204759513 -2.1027821495
C -0.2585884628 -0.9148376116 1.1009828582 1.0612365036 -0.8144242342 2.9314044594
C 1.0869217434 -0.6905381409 1.3102109398 -1.5214027466 -1.6519422229 2.9389828188
N 1.5759252382 -0.0767390458 0.2050552931 1.5149935408 0.1556924482 0.0559798712
C 2.9492273036 0.3424785752 -0.0037504442 1.5305577899 1.4831501411 -1.1064994224
C 0.5701505210 0.0814461971 -0.6744231165 0.0771809573 1.0665993480 -2.2222404692
H -2.0373635411 1.6378011386 -0.9254386025 -0.9312386778 0.0067691574 0.0711360056
H -2.2632692046 1.0689983722 0.7561218558 0.0101941042 -0.4338284860 1.5009630367
H -3.6167097522 0.8222977187 -0.3744096580 -0.2664423474 0.1366932598 -0.5877136764
H -2.4637630463 -1.3293606392 -0.4065455321 0.4035162932 -0.3294385170 0.1210345918
H -1.7555609824 -0.4807148021 -1.8512795383 0.1955714225 -0.4192005085 0.1462367472
H -0.9890869559 -1.3779723378 1.7449027665 -0.5878658848 -0.2393637600 0.4329464420
H 1.6176100988 -0.9703362826 2.2099701758 0.7765267487 0.1084480319 0.2463145798
H 3.1382776942 0.3181956280 -1.0946848238 0.1312807573 -0.0414175308 0.1037994846
H 3.0593132361 1.4042665501 0.3279556475 0.2174017979 -0.4743855220 0.1576951055
H 3.6538597494 -0.3341439408 0.4961430082 0.0504977438 -0.0513069042 0.3343294225
H 0.6789394351 0.5412003560 -1.6374849310 -0.0944804059 0.3844407393 -0.9398187964
B -1.8637903001 1.9542712397 3.2163497825 0.3630596154 1.5737878512 1.4790196253
F -1.9979725707 0.8771210874 2.2597795265 -0.1353563251 0.1196169064 -0.4702218315
F -2.5512799541 3.1585804535 2.7926523789 0.5294514282 -1.6112678833 0.1286995009
F -0.4592305259 2.2622448022 3.3361690590 -0.7870679174 -0.3453093263 -0.2921697055
F -2.3469279540 1.5259701227 4.5067578059 0.2583421285 0.1633847444 -1.4515320447
24
energy=-20625.9744183955 config_type=IL_pair name=EMIM-BF4 Properties=species:S:1:pos:R:3:forces:R:3
C 2.6898209305 0.5677967989 -0.3753254247 -18.2294899454 -0.6011061094 11.4085223588
C 1.8617628284 0.2435927404 0.8384948503 0.4911995769 -0.3021068582 2.5503110493
N 0.5110918455 -0.1800033961 0.4875770156 3.6926792403 0.9882674704 2.1968609759
C 0.0822067609 -1.4433171475 0.2433294520 -1.5056574566 -4.3881321830 -1.0017310068
C -1.2734008404 -1.4008046527 -0.0538458387 2.3572393440 -3.1883411208 0.0344763794
N -1.6224255474 -0.1005686981 0.0213413467 -3.2081760278 0.8497000424 -0.6312663245
C -2.9692295660 0.3988077183 -0.2201133428 -1.4951753283 1.0639370912 -1.1427520879
C -0.5323968368 0.6442183742 0.3519510914 -1.2412694218 5.2634029927 0.3693699924
H 3.4405066162 -0.2356683554 -0.5252393038 -8.1275884931 -11.7832584312 1.1780939055
H 3.1747302888 1.5721829122 -0.2876029598 -6.1229074877 3.9033292346 4.0718034214
H 2.0895791923 0.5984687468 -1.3091683145 -2.0961955511 -0.2471730263 2.3535228373
H 1.8561407791 1.1320032402 1.5007423186 -0.8566572792 -0.2822712039 0.2837951776
H 2.3345765776 -0.6034927097 1.4064609987 -0.5703730209 0.2965556177 0.0970663190
H 0.7179903408 -2.3297947925 0.2807460407 0.1968244654 0.1415578254 0.1257532161
H -1.8991558515 -2.2595345335 -0.2943758703 -0.4876739583 0.2392627789 -0.0789015404
H -3.6963800624 -0.0004615210 0.5166865700 0.0801340941 -0.2213939308 -0.2200387834
H -2.9871077993 1.5022651140 -0.1322770993 0.2167256269 -0.1205997970 0.0983010406
H -3.2778804713 0.1642054283 -1.2789928682 -0.0344179794 -0.0850458027 0.8327017013
H -0.5004291850 1.7301047334 0.4868348585 -0.1710851453 -0.3127565205 0.0403069998
B 3.6682313371 1.1370651368 -1.8029599325 4.8922192911 4.2359244765 -10.2982578655
F 3.1675445163 2.4679655412 -1.5957390281 1.5102943016 -0.2552285751 -1.1394804480
F 4.0890158532 0.5579531888 -0.5498041304 30.9680857506 5.7464172657 -4.5771786350
F 2.5920214949 0.3249185831 -2.3442764455 2.1108299186 -0.6288206851 -8.4396254211
F 4.8158398881 1.1459436599 -2.6960954005 -2.3764630055 -0.3176912074 1.8971543930
24
energy=-20627.5556979346 config_type=IL_pair name=EMIM-BF4 Properties=species:S:1:pos:R:3:forces:R:3
C 2.7328388040 0.2764229464 -0.6336162685 2.7039298378 0.6869287367 -0.7269118857
C 1.8073655210 0.6415558977 0.5149435058 0.5424549069 2.5156679806 0.6903179133
N 0.4721894994 0.0904559415 0.3485731925 -0.9757406288 1.1493785585 -0.6687384286
C 0.1063023718 -1.1190580503 0.8126219439 5.3927274883 5.3187995843 -1.7238284421
C -1.2225325519 -1.2891182430 0.4648477298 9.1186868897 2.4857940609 -21.5262580267
N -1.6510691802 -0.1900847647 -0.2028710391 -1.9271737061 0.7710170465 -0.7396228263
C -2.9617715162 0.0589975136 -0.7465962628 -1.3941439098 1.0360567701 -0.0586778458
C -0.5975107363 0.6457246651 -0.2646471291 2.5624582302 6.0539716002 -1.6652461929
H 2.1948689559 -0.0505067744 -1.5289906410 -0.0898665866 -0.3919501913 0.0089896712
H 3.3300397428 1.1852584086 -0.9266304329 -0.5799019474 -0.6548525510 0.1618717138
H 3.5042710826 -0.4455322850 -0.2898522355 -0.6050754981 -0.2280399246 -0.5035421181
H 1.7092101186 1.7515622715 0.5350265581 -0.1692657686 -0.2442408504 0.0411094607
H 2.2349435879 0.3742831918 1.5018587192 -0.2701154733 -0.4109225447 -0.1287835833
H 0.7397992017 -1.7995316216 1.3450798882 1.1186754617 2.3689005895 -0.7581236987
H -1.8279279970 -2.1732252409 0.6947791633 -4.3925040906 -9.3158400501 -19.8517099885
H -3.5541564490 -0.8662667738 -0.8111189699 0.0754884291 -0.2579051781 0.0578154453
H -3.4700276056 0.7666383455 -0.0393697499 -0.3445953323 -0.2326203612 -0.5984276399
H -2.9181574510 0.5277471460 -1.7486691255 0.0788266885 0.0062708402 0.0476944666
H -0.6286753986 1.6146774260 -0.7412498271 0.0846288712 0.4787847506 0.0342267638
B -1.1475219986 -3.0042290354 1.7675013555 4.1527068207 -10.2774603546 6.3625041776
F -1.4709562047 -3.3561895685 3.1387139909 0.3627750433 1.3802125385 -2.8635882761
F -1.7306054799 -1.7106699926 1.4941423187 -13.0461705300 4.5777668989 39.7267343947
F 0.2918177807 -2.8704501712 1.6401455463 -2.9259846068 -9.2570843348 3.5551516445
F -1.6639307266 -4.0131398628 0.8765343399 0.5310164089 2.4584993038 1.1189025968
24
energy=-20626.7594220256 config_type=IL_pair name=EMIM-BF4 Properties=species:S:1:pos:R:3:forces:R:3
C -2.6485564146 -0.4142094732 0.5320509243 -1.4895930927 -1.7253881717 0.7273087278
C -1.9242408797 0.1165835876 -0.6721012407 -1.0825410544 1.4606615197 -0.8751288122
N -0.5295821158 0.3447855633 -0.3043158533 2.5656130553 -5.5543778688 -2.1516832500
C 0.0217756829 1.4617620464 0.1958816791 -0.5729740126 -21.5850033373 -4.9612628842
C 1.3811148552 1.2073803835 0.3895894394 -0.8373658263 2.4862006332 0.7774409109
N 1.6121887598 -0.0671016108 -0.0029424747 0.3820574370 -1.9108053965 -0.4500587495
C 2.8712782263 -0.7899445619 0.0081477942 2.6318528902 0.0762946507 -1.0220718928
C 0.4327149071 -0.5902865595 -0.4280780930 -0.7154277096 -4.0854744593 -1.6072808206
H -2.8605464471 0.4120423098 1.2172536741 0.1376568161 0.0158402096 0.5533343219
H -2.0084934764 -1.2015647946 0.9865601053 -0.4570226011 0.4122191000 0.2379912973
H -3.6024117001 -0.9036046951 0.2045417428 0.5153014296 0.4678279144 0.3814375121
H -2.0250755117 -0.5827277150 -1.5083458693 0.3955931021 -0.1069217488 -0.5295626808
H -2.3161849819 1.1266231604 -0.9450277120 -0.0138241563 -0.3632311673 -0.0941384178
H -0.4886797730 2.3939836632 0.4122379645 -25.9501779336 -22.0555937594 -10.9250574916
H 2.1253711623 1.9110599549 0.7869311051 0.2031079037 -0.6079965510 -0.1477779000
H 3.7040317181 -0.0360259829 0.0361022032 -0.5751497312 -0.4464408033 0.3242790050
H 2.9589276761 -1.4693132205 0.8679520894 -0.0401236705 -0.2694544772 0.1015020812
H 3.0059383376 -1.3115747987 -0.9672443095 -0.2246871482 -0.2707508543 0.5154494941
H 0.2904299749 -1.6078672571 -0.8091931689 0.5345064079 -0.2414027212 -0.1566683146
B -1.1703126999 3.1500073554 1.3111266123 -8.4250440562 5.6315872380 8.2731012492
F 0.0402331881 2.8679109708 0.5625430981 29.8387782035 49.8628729770 13.1510831323
F -1.4479072156 2.0822290501 2.2436753363 0.7719094079 1.1136659476 -1.1859947153
F -2.3328828156 3.3099478768 0.4567834831 2.1531935652 -0.4997724524 0.3130102218
F -0.9677536050 4.3829394150 2.0326438128 0.2505949690 -1.8023165906 -1.2521851670
24
energy=-20642.3509842644 config_type=IL_pair name=EMIM-BF4 Properties=species:S:1:pos:R:3:forces:R:3
C -2.6650458630 0.7233210467 -0.1782161955 -1.7481135463 1.4239336150 -1.7244375475
C -1.8954453838 -0.5756443080 -0.3367889407 -2.8206263364 -1.1162039573 0.0755263703
N -0.5259859398 -0.4349681492 0.0975754471 -1.2646893077 -0.4896648880 -1.1595161462
C -0.0245747341 -0.6420867899 1.3307440279 2.0921704241 -0.3788124472 3.9135179258
C 1.3458891932 -0.3839568380 1.2779651139 -1.6014656323 -1.1657994723 3.6694630606
N 1.6143380246 -0.0284086302 0.0009105400 2.3995608437 0.2771271338 -0.7260748948
C 2.9303579678 0.3321491068 -0.5177611021 1.9600608702 1.2697305978 -0.4447782619
C 0.4750802810 -0.0612978964 -0.7098284554 0.2872516934 1.1518875133 -4.2263126525
H -3.7541426991 0.4807796941 -0.2785983549 0.6839750241 0.2361549203 0.2793502926
H -2.4315576602 1.4236042128 -1.0187476435 0.0236724231 -0.3362942955 0.6199631895
H -2.4654346995 1.2276800751 0.7649926599 0.4224880632 0.4115212654 1.0523228511
H -1.9550199201 -0.8956240506 -1.4003935761 0.3538909678 -0.3227883797 0.3610171919
H -2.3991475552 -1.3141483502 0.3420276230 0.5760611711 -0.0309319465 -0.6015201182
H -0.5914453054 -0.9549930822 2.2086715037 -0.3931278533 0.0059360427 -0.0117335825
H 2.0541868336 -0.4589331812 2.1162079366 0.1419506357 0.1692499676 -0.4198145066
H 3.7392842246 -0.1335623013 0.0820945377 -0.3685489109 -0.2554829155 -0.1460590614
H 3.0770234181 1.4298736332 -0.4201895010 -0.1382872734 -0.0457170197 -0.0392558506
H 3.0395765471 0.0793086719 -1.5879424331 -0.1743094585 -0.2653483814 0.1082710984
H 0.4320632699 0.1869071366 -1.7727231874 -0.2777406146 -0.0377601336 -0.0608782074
B -0.8797157746 2.9169470573 3.3864217967 0.2137582715 0.1011825659 0.3007550633
F -1.2804878603 2.0669822601 2.2740287347 0.1975859203 0.2432030742 0.3179820293
F -1.4906094543 4.2146054314 3.2233653165 0.4065187083 -1.2138927089 0.1948281896
F 0.5658211762 3.0889971155 3.3905580780 -1.2181202842 -0.3061782805 -0.1625439588
F -1.2658601018 2.2731340988 4.6233172028 0.2583019195 0.6652292335 -1.1680685872
24
energy=-20625.2126621405 config_type=IL_pair name=EMIM-BF4 Properties=species:S:1:pos:R:3:forces:R:3
C 2.7016653806 0.1492206169 0.6091895531 2.1109892471 1.0070169367 1.2798155290
C 1.8602307133 -0.6470528144 -0.3386155860 1.1228383729 -2.1605251293 -1.3728848421
N 0.5069247401 -0.1594418581 -0.4162710821 2.1950038764 -1.7204772103 2.5983167517
C 0.0064309648 0.7720618459 -1.2558618273 -3.1225078568 -29.9565565340 -0.8413583528
C -1.3406284516 0.9043916436 -0.9520628825 -6.7952287721 -1.6091524499 0.8257828867
N -1.6426327956 0.0504429581 0.0698971980 -1.3505112061 0.3423275078 -0.8016914149
C -2.9455710699 -0.1325257982 0.6994376088 -1.1670922014 -1.2266723787 0.3015442751
C -0.5063407405 -0.5668216621 0.3594571082 -0.1449947140 -4.5277578862 5.7192853629
H 2.1547988624 0.3050840832 1.5667484675 0.6322419045 -0.0055091497 -0.2954354202
H 2.9905644650 1.1187595260 0.1512054540 -0.4058766106 -0.0947126262 0.3767315258
H 3.6713153077 -0.3972667553 0.7501758868 -0.7562928660 0.3609768388 0.3934068560
H 1.8554105979 -1.7151732736 -0.0353769907 -0.2854148821 0.1476795994 0.1073091920
H 2.3700214762 -0.6306945009 -1.3317024177 -0.6625210712 0.1856769036 -0.0781787724
H 0.6019149991 1.2708203422 -1.9917041452 12.9813487486 -18.5047669176 -10.8807554277
H -2.0336939533 1.5678054686 -1.4383618973 -0.7477822288 -0.2187646655 -0.1723124034
H -3.4973512011 -0.9901570230 0.2441838093 0.3252209915 0.1669432236 0.1703190642
H -2.7750765883 -0.3243101176 1.7584551208 -0.1877361182 -0.1503002583 0.6404095678
H -3.5732108219 0.7488368034 0.5729272788 -0.0471215521 0.6654166247 -0.0767015950
H -0.4047718847 -1.3239794848 1.1430848659 -0.0789588180 0.1736747893 0.1219560038
B 0.5521138580 2.3357688309 -2.7670702762 3.3850690529 7.9751879490 -11.8868471216
F 0.3402752719 1.3431240982 -3.7910624773 -0.2129503757 1.1485322911 1.4557973070
F -0.1583836367 3.5490883935 -3.1475947554 0.9004385110 -2.5127348103 1.7192885365
F 1.9759301283 2.6258552792 -2.6972989578 -2.3067520729 -0.5911018152 0.8272797115
F 0.0778514474 1.8846216308 -1.4773532183 -5.3824947635 51.1110704948 9.8757641225
24
energy=-20642.6615345703 config_type=IL_pair name=EMIM-BF4 Properties=species:S:1:pos:R:3:forces:R:3
C 2.6891157156 0.2763597285 -0.5820389048 1.9546822206 1.8512361048 -1.3289044782
C 1.9027632766 -0.0071901754 0.6694701624 1.0447623096 -1.2732377233 2.1180015539
N 0.4881536001 -0.2623212659 0.3573034902 3.5310718289 0.4641615180 1.2540857685
C -0.0696840869 -1.4581467260 0.0819330761 -1.8532397211 -2.6378991155 -0.7278440765
C -1.4107848395 -1.2166520934 -0.1467968221 1.7647211586 -3.0308518725 0.1165593299
N -1.5856057662 0.1186849254 0.0046669226 -2.5936886827 0.8891133532 -0.4678252332
C -2.9009926279 0.7291272855 -0.1677446904 -1.6088626017 2.1352823283 -0.1737538730
C -0.4166908307 0.7093847281 0.3154196876 -0.9010488667 2.5914989992 0.1323061489
H 2.9781684601 1.3614438035 -0.5208782860 -0.2519788464 -0.8039730048 -0.7870987755
H 2.1293512010 0.0535476337 -1.5130286596 0.1443970293 0.1915740283 0.3521565583
H 3.6398337537 -0.2909388552 -0.5933146773 -0.3256986001 0.0096179619 -0.0302022446
H 2.3384617575 -0.9133284176 1.1643027063 -0.6586901271 0.2574584940 -0.1055738311
H 1.9516101614 0.8056395757 1.4252619814 -0.0821605901 -0.0100010706 -0.3102458821
H 0.4531094279 -2.4057106484 0.0524521147 0.4662685139 -0.2983582692 0.0314541520
H -2.1437747291 -1.9744187851 -0.3955042069 -2.1764856300 -0.8474384891 -1.2110917040
H -3.3470285443 0.4425909820 -1.1401725385 0.1455375756 -0.4299940643 -0.1904600549
H -2.8237451903 1.8452039582 -0.1462347814 0.2117578427 -0.5882054016 0.0231843968
H -3.5776212115 0.4292879891 0.6499267914 -0.0232763276 -0.2506361859 0.0747503252
H -0.2946395275 1.7574363573 0.4849766344 0.3825461609 1.0951692043 0.2169944481
B -2.9548556562 -2.5872842208 -2.7789877371 -0.7994292669 0.3413712438 -0.5737407008
F -3.5780120585 -3.4875599861 -3.7185384635 0.9315542186 0.7832152728 0.8812953152
F -3.2014289110 -1.2131820731 -3.2049546724 0.3140144961 -0.8280959134 0.4412086100
F -1.5294064321 -2.7862522423 -2.6685718725 -1.1460485929 0.0581312899 0.1930890665
F -3.6107020701 -2.7396087425 -1.4885790676 1.5454936258 0.3323727966 0.0722146920
24
energy=-20608.4108188789 config_type=IL_pair name=EMIM-BF4 Properties=species:S:1:pos:R:3:forces:R:3
C -2.7071015479 0.2232927429 0.6382838769 -1.9561050194 1.1999419116 1.6939813945
C -1.8709368936 -0.7162562213 -0.1893375270 -0.9826915089 -1.2271051102 -1.9538612359
N -0.5041899636 -0.2333832183 -0.3382894259 -1.3503242813 -2.1966146687 0.3071978838
C 0.0078538585 0.5653982932 -1.2955846278 0.1708364699 0.7152710006 -3.0945771687
C 1.3629196426 0.7444837803 -1.0061150494 -50.3440459169 15.3857078934 -2.0906460919
N 1.6138676185 0.0382622501 0.1262529764 -10.5252455270 -11.3650579640 19.1470478796
C 2.9228470361 -0.0329919417 0.7622568831 -4.0670083844 -13.9145266602 5.1997776913
C 0.4706821412 -0.5557139493 0.5282224343 0.0657162146 -2.0072004565 4.0165246986
H -3.3396973074 -0.3774015888 1.3226183129 0.0083239795 0.3076830894 -0.1562730591
H -2.0933621274 0.8928471617 1.2750802100 -0.0761329395 -0.2340834779 -0.3110690998
H -3.3903082906 0.8489631648 0.0186268380 0.4926775582 -0.2526418030 0.2740957505
H -2.3038604830 -0.7744372190 -1.2272851038 0.3038703649 -0.2409078125 0.6738604937
H -1.8395041635 -1.7373777099 0.2361769751 0.0067161931 0.0655304952 0.0222465285
H -0.5469861903 0.9855236876 -2.1340730136 -0.3230800313 -0.1011336869 0.2320658608
H 2.0795875112 1.3324661374 -1.5726781594 -7.9216222758 18.9066887912 -14.3523130798
H 3.6275242083 -0.6967295999 0.2432890394 -1.3707891799 -1.7153607041 0.5495545030
H 3.3654605511 0.9955562076 0.7991331840 2.5376351164 -8.5947735461 8.4241390223
H 2.7734422630 -0.3180484795 1.8266351832 0.2796176148 -0.1113049265 -0.1581759462
H 0.3717621371 -1.1844534978 1.4053835179 -0.5326389260 -0.2888008597 0.2708437909
B 3.4549307121 1.3429774459 -0.3650377964 9.6784241951 7.5595516963 -6.3410981081
F 3.8429401354 2.4712059711 -1.1821539476 -1.5578933692 -2.5304808159 1.2995023809
F 2.4008562107 0.5962724095 -1.0218460068 67.8150017294 -20.9921454823 -10.6211079205
F 4.6321987484 0.5371716938 -0.1295612921 3.3877617072 3.2509771095 -3.8643162564
F 2.9309910315 1.8415848250 0.8892918771 -3.7372427466 18.3754807533 0.8461660037
24
energy=-20642.2175639510 config_type=IL_pair name=EMIM-BF4 Properties=species:S:1:pos:R:3:forces:R:3
C -2.6143157396 0.1081149516 0.6637103271 -0.9834520811 -0.3337462252 2.0324084751
C -1.8887413158 0.4698942431 -0.6284273256 -1.5814474775 -0.6003829746 -0.1890141400
N -0.5254014592 -0.0242251812 -0.4916203453 -0.7577036294 1.5881060982 -0.6139716299
C -0.0377066345 -1.2347934181 -0.8377597874 1.4626492598 -3.1701475497 -0.8306901940
C 1.3057553615 -1.2296523578 -0.5148915914 -0.7099859307 -3.7861582146 -1.2771809089
N 1.6143277967 -0.0216590305 0.0204508337 0.1586534952 0.9452699768 -0.1421283700
C 2.9091749940 0.4182003713 0.4977562077 1.9262334836 0.8024040740 3.2955876874
C 0.4876193337 0.7151771060 0.0329151641 -0.4736494099 2.9842752654 1.3906535490
H -1.8771910848 -0.0020904451 1.4949999888 -0.4915443995 0.0387960808 -0.4236602306
H -3.1889314633 -0.8334159630 0.5733919753 0.2692066116 0.1755942746 0.0097925159
H -3.3190188840 0.9007722616 0.9603338761 -0.0548866909 -0.0252924797 -0.1073865753
H -1.8633959964 1.5535682736 -0.7372278253 0.0756739798 0.5677561027 -0.5891942515
H -2.3904326608 -0.0660131888 -1.4654381990 0.3935062028 0.6328250954 -0.1789530634
H -0.6139069368 -2.0485149499 -1.2864064023 -0.2000132657 0.1582631885 -0.0288605379
H 2.0104166167 -2.0504085881 -0.6601965277 0.3347379754 0.1110572645 0.0718272040
H 2.9265400093 1.5253612310 0.5107667150 0.3031642320 -0.1963797882 -0.4130238648
H 3.7125368914 -0.0351404986 -0.1068708549 -0.0524893698 0.1972235377 0.0023195559
H 2.9566560405 0.1109676909 1.5703653210 0.1632061607 -0.1136424339 0.0456139551
H 0.3960151312 1.7438574920 0.4041484501 0.0515720897 -0.0961519423 -0.1062982664
B 3.3623457900 0.8571751978 -2.9030014029 0.4646034552 0.9189852662 -2.0726753393
F 3.1602755750 -0.2029067664 -3.8552620293 -0.0021657303 0.8301540470 1.0065260369
F 2.6330016457 2.0458886613 -3.2911479104 0.6673248408 -1.2979268424 0.5567676656
F 4.7697216519 1.1430812882 -2.7960340110 -1.2590221610 -0.2775585558 0.2583084402
F 2.8656816325 0.4216918025 -1.6115874492 0.2951747282 -0.0555203801 -1.7041945062
24
energy=-20632.1397827680 config_type=IL_pair name=EMIM-BF4 Properties=species:S:1:pos:R:3:forces:R:3
C 2.6397617903 -0.4197064680 0.4621835913 1.0483861453 -0.2489207539 2.9716649809
C 1.8324726243 -0.3573961174 -0.8289796212 0.3961897859 2.0718673608 15.5037372757
N 0.5247224636 0.1559967627 -0.4851745649 1.8276007889 -1.6502194618 -0.1737449947
C 0.0905712685 1.4309266210 -0.4466939441 -3.3070844240 2.8959887878 0.8877929215
C -1.2521057453 1.3782327464 -0.0539894639 1.4663316447 4.0635677787 -0.5912997615
N -1.6010167591 0.0821297162 0.1359031177 -2.1805681940 0.5764817794 0.0418537357
C -2.9211152030 -0.4145292700 0.5524694157 -0.2085310409 -1.6624296560 1.1145697291
C -0.5016077927 -0.6328722535 -0.1337176720 -0.1865225648 -5.2138533491 0.3373024541
H 3.6069263412 0.1048238863 0.3233186645 -0.1131531631 -0.4196912707 0.0951848203
H 2.8214013325 -1.4908914491 0.6975505116 0.1566303561 0.5638568305 0.5281597695
H 2.1200516846 0.1061704043 1.2938452757 0.3634367025 -0.5169005920 0.0520428690
H 2.3342466858 0.2944386407 -1.5675470927 3.6098619828 6.4944591315 6.4188204934
H 1.7155718058 -1.3507787637 -1.3118232998 -0.5342155193 -4.5268322845 5.5280123074
H 0.6664591112 2.2988120930 -0.6730292530 0.8915542199 0.8454502197 -0.3666001112
H -1.8940067020 2.2499317150 0.0723150225 -0.4658440386 -0.1424944589 0.1222433895
H -3.1007189094 -1.4345869394 0.1502225056 0.1953030215 0.2769760544 -0.1858888043
H -2.8730019407 -0.5276271064 1.6625808362 -0.5390502158 0.3131365613 -0.2754241525
H -3.7222283368 0.2438434476 0.2144394427 -0.2487513008 0.5230303309 0.0238289893
H -0.4863837188 -1.7169176657 -0.0638734718 0.2580887684 -0.2785920460 -0.1096925076
B 2.3464432523 -0.0325815033 -3.5286952794 1.7568326812 1.7797810791 -7.0895300963
F 2.0401326915 -1.0487063810 -4.5175401324 0.1814538746 1.2047159387 1.7161067528
F 1.7003549961 1.2177074547 -3.8628686774 0.3979925733 -1.6037390899 0.8744247011
F 3.7658756376 0.1839396917 -3.4727448501 -1.5659626454 -0.4520460542 0.5382994004
F 1.8873082305 -0.4850131021 -2.2461799834 -3.1921983678 -4.8982826661 -27.9716421032
24
energy=-20642.5929034108 config_type=IL_pair name=EMIM-BF4 Properties=species:S:1:pos:R:3:forces:R:3
C -2.6895190729 0.3917173180 -0.0801267403 -1.8304876808 1.2883147058 0.6268994580
C -1.8054898435 -0.6619360904 -0.6822812388 -1.1971277823 -0.6132819160 -2.6408642799
N -0.4876101086 -0.5266506116 -0.0878428441 -0.2023478733 0.1450548157 -1.8651416203
C 0.0272856813 -1.0958707425 1.0082544569 1.2506928275 -1.4525525078 3.5244226464
C 1.3163823997 -0.6575627906 1.1649420690 -0.7011673739 -2.1624259082 2.5910127499
N 1.5937566783 0.1894822275 0.1534220093 1.2260562183 0.9385147205 -0.7818553312
C 2.8342778733 0.9125321433 -0.1140939271 1.5105133477 0.6549550392 -1.5247917835
C 0.4803462343 0.2564687815 -0.6006130120 -0.1818685981 2.4538509963 -3.5237805578
H -2.0876916664 1.3233944230 0.0399296503 -0.5817657015 -0.3406383885 0.1797680682
H -3.0618073467 0.0008593064 0.8978840121 -0.0036040019 0.6381234202 -0.4508093803
H -3.5431964066 0.6103838235 -0.7818411320 0.5657273162 -0.2550130265 0.8509635973
H -2.2041954095 -1.6847649758 -0.5655443003 -0.2094849579 -0.6267903234 1.0134794465
H -1.7369682658 -0.4805309664 -1.7820942230 0.5134710506 -0.0800664822 0.3740776940
H -0.5013463254 -1.7809767000 1.6457206273 -1.2256604246 -2.0926905509 0.5046110493
H 1.9836638329 -0.9377879683 1.9502474422 0.9686344305 -0.1091011632 0.7266763737
H 3.2034032338 0.6980821515 -1.1472228390 -0.3313629868 -0.1877778178 0.2981486665
H 2.6420914734 1.9999125581 -0.0966276637 0.1692389646 0.1030350688 0.5305088720
H 3.6271181001 0.5757200402 0.5689941181 -0.1167074239 0.2490969237 0.4328924371
H 0.4094989384 0.8675280723 -1.4911064646 -0.1967616761 0.2233154899 -0.5010512570
B -2.5377698499 -3.9665983857 1.5242297331 0.1789792797 -0.1999104901 -0.1750764619
F -2.7302140678 -4.9667159703 0.5065268911 -0.0001095346 0.7730512752 0.9215587612
F -3.1692111082 -2.7265955420 1.0994989395 0.5031516206 -0.5204869163 0.0411833853
F -1.1085216993 -3.7048553477 1.6277958712 -0.5806148096 0.6690660626 0.1983240417
F -3.0574334513 -4.3988996502 2.8000706041 0.4818911937 0.5095995353 -1.3504076018
24
energy=-20639.7854067063 config_type=IL_pair name=EMIM-BF4 Properties=species:S:1:pos:R:3:forces:R:3
C -2.6617627147 0.5953702621 -0.2312611626 -0.4656620366 -0.1480430917 -2.2742738586
C -1.9100385785 -0.2465283816 0.7764044911 -0.9473287660 1.5297727941 2.0692677899
N -0.5243554383 -0.3281960336 0.2992630739 -2.1705111245 -0.4332283725 1.5462989919
C -0.0935001917 -1.2999616020 -0.5239921495 2.3989562192 -2.2422594788 -2.2419331544
C 1.2459144093 -1.0423569242 -0.7452204113 -1.2789387456 -4.1440668065 -2.4763885497
N 1.6102211469 0.0661144279 -0.0648602965 -0.7118359573 -0.0900955661 -1.4513464513
C 2.9423598054 0.6338572966 -0.0627025824 -0.9428996275 -2.6218628659 -4.7396804689
C 0.4985490226 0.4940535165 0.5764042681 0.9199920441 2.6715387772 1.7862665942
H -3.7376108910 0.6827751374 0.0134428996 0.3390231590 0.1959701409 -0.0276661279
H -2.1496659335 1.5717278154 -0.3265378732 -0.5430669068 -0.0162320873 0.1073380145
H -2.5401793105 0.0645424954 -1.2171103291 -0.5172253095 0.6653146156 0.5814643335
H -2.3691261484 -1.2280264039 0.9271716142 0.2307195662 -0.6183546623 -0.1020511611
H -1.9235505172 0.3020156614 1.7469952405 0.2681481753 -0.4399083217 -0.0632436617
H -0.6707940809 -2.1124908257 -0.9289078362 -0.7297373855 -0.4313286704 -0.0447407877
H 1.8751570649 -1.6737508263 -1.3857344358 0.4118573136 0.4901006459 0.1988740005
H 3.4360826555 0.5616261457 -1.0561298183 -0.6747401128 0.0562048363 -0.2583342710
H 3.5526044048 -0.0360090690 0.6107801393 -1.0958263429 -0.3376920371 -0.7680646439
H 2.9517031381 1.6325880079 0.3868966805 -1.4012596918 0.4552487228 -2.3014761291
H 0.4679921570 1.3626493000 1.2050984878 0.2115478435 1.1552396319 0.8627929091
B 2.9451665784 1.8360821666 2.2651102434 0.1624368889 1.1558448275 4.0111767769
F 2.1694263057 2.9254691703 1.7199814888 0.8201811900 -1.4365492823 -0.1938835751
F 3.9044440008 1.3385233426 1.2858407707 6.2953546014 4.5354369159 8.2569806047
F 2.0312703974 0.7760133498 2.6463612238 0.5507757525 0.6458605023 -0.7213490557
F 3.7040599929 2.2615529064 3.4312896337 -1.1418137725 -0.6044958189 -1.7553083525
24
energy=-20599.5222098234 config_type=IL_pair name=EMIM-BF4 Properties=species:S:1:pos:R:3:forces:R:3
C -2.4529049475 -0.6023404741 -1.1463190668 14.6317651474 -20.9363628148 -8.3699173969
C -2.0332576785 -0.2550240874 0.2699044778 6.4206200327 -12.6839114420 20.6458401717
N -0.6152329652 0.1210962941 0.2159324829 3.4943491815 -4.8673563828 3.4321842577
C -0.2013212426 1.3938775386 0.0101920922 4.1736942770 3.4279743091 -0.0832548636
C 1.1828247889 1.3240552338 0.0288806155 -0.7248167882 5.4520735464 -0.6640975397
N 1.5834809084 0.0594221043 0.2375746633 2.3203030303 -0.1708026584 -0.1574040617
C 2.9667686231 -0.3536302405 0.3123247402 1.6778490092 0.5690341923 0.6228556896
C 0.4593136223 -0.6694297208 0.3507245616 0.0088799510 -5.7195920754 1.4824262605
H -1.5549794741 -0.9629398708 -1.6995023315 0.1954358949 0.1204829273 0.3943008337
H -3.2958850575 -1.3110876179 -1.1858103881 4.3897897956 -10.9288403762 5.0410101859
H -2.7327082115 0.3663949003 -1.6550163225 2.0410079082 1.0243063664 -11.1970706711
H -2.1230784160 -1.1383138695 0.9253501204 1.0032417497 -1.5919761488 1.4085947776
H -2.6368098985 0.5954500154 0.5929758673 0.0001762418 -0.2703129728 10.8296846674
H -0.8166040839 2.2749982136 -0.1369895880 -0.1355746563 0.1253253572 -0.0027848509
H 1.8663757194 2.1786844094 -0.1071283909 0.0413017845 -0.4970810300 0.0689825273
H 3.4060567503 0.2525838157 1.1479024244 0.3469901678 -0.6769971581 -0.4010507689
H 3.4822737571 -0.0939406188 -0.6289905216 0.1845599725 -0.0234766371 -0.0790056998
H 3.0714253999 -1.4303770890 0.4939935456 -0.1616654043 -0.1873980838 0.1858451649
H 0.4442624058 -1.7494789362 0.5270750442 -0.1263250934 0.2502594177 -0.1191676979
B -3.4827383972 0.3636444238 -0.6609762845 -17.0429069093 9.3881318066 4.1531213775
F -3.7722347789 -0.5631859319 -1.7238715105 -31.0251378547 0.1302223441 -16.2032371066
F -4.1631146639 1.6116213771 -0.9650146428 1.1739111816 -1.8176013028 0.5811108668
F -2.0497376022 0.6168059853 -0.6069854362 14.0185531441 40.1605233381 -9.9622509730
F -3.9372309581 -0.1344557735 0.6254320079 -6.9089559892 -0.2697451727 -1.6221212231
24
energy=-20623.3239419492 config_type=IL_pair name=EMIM-BF4 Properties=species:S:1:pos:R:3:forces:R:3
C -2.6874227961 0.5792967289 0.3250111700 7.9771499871 6.4924142979 8.3330053803
C -1.9099397784 -0.3987303912 -0.5594689124 4.5805317162 -18.5292701617 15.8147918366
N -0.5139594134 -0.4565122188 -0.1479976528 -4.1440028954 -0.6736819768 -0.4664336542
C 0.0338046646 -1.2828735684 0.7561895456 3.2112539498 -3.2003015641 3.1222891883
C 1.3894481602 -0.9856054141 0.8291982575 -0.7017061735 -3.4878251483 2.6260492320
N 1.6333130112 0.0121732599 -0.0303483167 1.6434119249 1.4624292545 -0.8553075376
C 2.8833475131 0.6912356561 -0.3372673629 1.2834255688 2.4855579663 -0.0824040726
C 0.4508632642 0.3154046261 -0.6138852668 0.5561043154 4.4730050121 -3.8237406250
H -3.5223255286 1.0628012559 -0.2246117853 3.8505366155 6.2268821405 5.7804803616
H -2.9591506950 0.1622847240 1.2988462150 -0.1899420315 0.1911221786 0.6530468995
H -1.9579595316 1.4121353843 0.5470950275 1.3664542504 -0.5317955004 0.9285258212
H -2.0557958593 -0.0852561462 -1.6005756558 5.9875048560 -15.5547019922 -5.8528977010
H -2.3870732485 -1.4000541122 -0.4472125113 0.6930721620 -1.1040050028 1.8270949942
H -0.4593288233 -2.0537390479 1.3420857415 -0.5972944717 -0.0056132904 -0.0646014655
H 2.1437435196 -1.4535963654 1.4551811579 0.3676283176 -0.0011647741 0.1199619954
H 3.6849518537 0.3545910065 0.3401564344 0.0605788049 -0.4369902884 -0.2907836129
H 2.7767373826 1.7988183677 -0.1469001894 -0.1784014407 -0.7321714749 0.0467880269
H 3.1453985429 0.6328330630 -1.4155579388 0.1044665763 -0.6151783757 0.2561345166
H 0.3113477621 1.0947931919 -1.3699379574 0.0427961339 0.0009968618 0.1592523999
B -3.6732455178 0.4842599536 -1.5698876909 -9.4444093570 -1.1022450290 -6.3281990008
F -3.9378615120 -0.5804626509 -2.5198974694 1.3088768783 1.8987133851 1.4627892822
F -4.4195366493 1.6659511761 -1.9241660419 1.8826891139 -1.5304855496 0.4160471589
F -2.2611689812 0.7396246975 -1.4907660374 -6.6625700740 34.2167110222 -17.8962600099
F -4.1511179040 0.0400765658 -0.2697793652 -12.9944331406 -9.9587271271 -5.8974904051
24
energy=-20641.1309081120 config_type=IL_pair name=EMIM-BF4 Properties=species:S:1:pos:R:3:forces:R:3
C 2.7008282211 0.5159569689 0.0643089201 0.5778972830 0.0507756685 2.2684596982
C 1.8337308326 -0.7005362269 0.3718767631 2.5201492977 -1.1216324566 2.0590484858
N 0.4694502492 -0.4871175915 -0.0504727712 1.2312996593 -0.4449916704 1.7203694454
C -0.0248730204 -0.7900674510 -1.2573742312 -2.3605028047 -0.5011056703 -3.2141297217
C -1.3531424784 -0.4250133064 -1.2326912098 0.0744272963 -1.7146891849 -4.7287207416
N -1.6357165407 0.0824971173 -0.0361889227 -1.3742044469 0.8817897548 2.0677390747
C -2.8855490852 0.6092065863 0.4946964587 -0.0861168794 2.2468024432 0.9511242048
C -0.5091068392 0.0523805864 0.7175168849 0.7587425396 0.8318682031 2.6497073050
H 3.3749905665 0.3198501504 -0.7887615308 0.0837599396 -0.0190890810 0.4425306585
H 3.3128767174 0.8224415004 0.9449255086 -0.1049862859 -0.6425715021 -0.3615321365
H 2.0541252962 1.3961420471 -0.1511222661 0.6742431228 -0.6310833408 -0.4367669708
H 2.2604239522 -1.6028724255 -0.1088196133 -0.4996035019 -0.0897610541 0.0571931767
H 1.8333265868 -0.8229764733 1.4738986879 -0.3429206699 -0.4818642231 -0.1707086316
H 0.4792589597 -1.2290419511 -2.0992821597 0.9324508402 -0.3284585164 -0.4023084470
H -2.0823283316 -0.5203219922 -2.0386718274 -0.2065625669 0.0617982422 -0.0087568555
H -2.6877128707 1.6965068873 0.6704290840 -0.4225529678 -0.2756254444 -0.0211809502
H -3.0211928607 0.1540060873 1.4803440846 -0.7550641497 -0.3743040204 0.2065839311
H -3.7169250499 0.5326153690 -0.2046294176 -0.3973937020 -0.5631363775 -0.2458768057
H -0.4024643048 0.3963441174 1.7500175577 0.0010684699 0.0104701549 0.0005096890
B 3.7033067526 1.7450320458 -2.2684197860 0.8643529024 0.4105479434 -2.1797862310
F 4.0384183473 2.9140360558 -3.0625070148 -0.5446481031 -1.1624965145 0.8026096424
F 3.2814538240 0.6442937043 -3.1171206610 0.3029862392 1.0713101341 0.9555025325
F 4.8844844232 1.3464069567 -1.5471311243 -1.3122977118 0.0585315769 -0.0344546898
F 2.5995117613 2.0862380746 -1.4041819984 0.3836949303 2.7132226360 -2.3651023651
24
energy=-20642.6896886477 config_type=IL_pair name=EMIM-BF4 Properties=species:S:1:pos:R:3:forces:R:3
C 2.7716845035 0.0636418843 -0.4405880535 2.7056993192 -0.1929184978 -1.9244835368
C 1.8776352176 0.0710101122 0.7789978634 1.9707962501 0.1410056483 1.5063070555
N 0.4806768611 -0.1249145239 0.4346276093 1.0072625371 0.4390138241 0.4919119526
C -0.1248024468 -1.3235523196 0.3546560344 -1.9812791412 -4.6741350363 -0.1907685180
C -1.4476728288 -1.1577102478 0.0067131339 1.6607619427 -2.8671930114 0.6449550135
N -1.6258815207 0.1839966854 -0.1222384856 -2.5376497811 0.2811007823 -1.2989484674
C -2.9135334597 0.7828060254 -0.4881463982 -1.9769411303 0.8683071877 0.4896191723
C -0.4627977504 0.7853848012 0.1371988859 0.4570868498 4.4773487762 0.9386577692
H 3.7825137546 -0.3746904960 -0.1934074914 -0.9417695618 0.4672670792 0.1079675199
H 2.9849151088 1.0904461344 -0.8055490543 -0.4071550523 -0.4114777425 -0.1555935835
H 2.3975011936 -0.5801555146 -1.2629459528 -0.2201120349 0.4196292366 0.2324696019
H 2.0224355998 1.0398056958 1.3149459819 -0.3896833523 -0.5349582542 0.1984826229
H 2.2091806269 -0.7968778524 1.4014345865 -0.6245076288 0.5712419835 0.2453495357
H 0.3299650664 -2.2961011209 0.5312032421 0.5865369509 0.0159785593 0.1808905271
H -2.1702841523 -1.9500890915 -0.1284088145 -0.7303863761 -0.0298876364 -0.1587310030
H -3.5330201217 0.0331736088 -1.0217994439 0.4938208945 0.1872106536 -0.3514855000
H -3.4881078553 0.9850268730 0.4613828078 0.5122687773 0.3998807667 0.3778702860
H -2.7718512612 1.7225345550 -1.0660760849 -0.0251876601 -0.4041759239 0.1287842200
H -0.3185565354 1.8462647910 0.1079996338 0.2203687319 1.1434744403 -0.0036203498
B -2.2820952610 1.5283678515 3.5143244793 -0.9318081869 -0.1512621028 0.5891980179
F -2.4762181497 2.8268672383 4.1059429130 0.4097466969 -1.2720484595 -0.5138553359
F -2.1436424965 0.4779986085 4.4908164941 -0.0269159753 1.0675468637 -0.7815009063
F -1.0649246965 1.5466529050 2.7167461939 -0.1437266093 -0.0772283065 -0.5713825564
F -3.4276358286 1.2274311081 2.6725759013 0.9128941790 0.1259909940 -0.1792273837
24
energy=-20640.9811023736 config_type=IL_pair name=EMIM-BF4 Properties=species:S:1:pos:R:3:forces:R:3
C -2.6505133191 0.7446877805 -0.3409583816 -0.7211194668 2.2207617642 0.0830592513
C -1.9551801492 -0.5192111682 0.1236615246 -3.0979983920 -1.7760237614 -0.9422255607
N -0.5263962687 -0.4054758734 0.0442881041 0.1534205738 -0.1406565919 0.7945430104
C 0.2162324211 -0.7422818388 -1.0419405638 2.1286497458 -1.1308488734 -3.4602531926
C 1.5586698607 -0.5046075485 -0.7712437550 -1.8205718625 -1.5535304000 -3.6311611186
N 1.5904367315 -0.0248212503 0.4866274341 0.7068932867 0.0241645605 2.9159393060
C 2.8075803418 0.3513274452 1.1561217207 3.4259426129 -2.2664691755 3.7983928948
C 0.3460526403 0.0409566129 0.9907977426 -0.7116799180 0.5257563045 1.8865505295
H -2.2295907108 1.6425936804 0.1899514552 -0.3783440360 -0.6382343550 -0.5430395389
H -2.5712133464 0.8849480373 -1.4352117431 0.2327921490 0.0331372479 0.2686982485
H -3.7253826747 0.6774188163 -0.1001831214 0.0943733551 0.0053049368 0.0231252018
H -2.3373559408 -0.8263201556 1.1092587533 0.5558467252 0.0927575678 0.5054970231
H -2.2861611519 -1.3324802757 -0.5863212190 0.5807886905 0.3320719232 0.5915633519
H -0.1744072914 -1.1388374470 -1.9848070680 -0.3853292438 0.0394133925 0.2296611168
H 2.3843226326 -0.6797867724 -1.4529187471 0.6134694443 -0.0176783364 0.1475442387
H 3.6210571741 -0.3783760193 0.9538413692 -0.6583699494 -0.2964400377 0.1540236146
H 3.1822782167 1.3391527085 0.7863720983 -0.4851097371 -1.6011009732 2.4180134112
H 2.6633529073 0.4832633271 2.2568672069 -0.3301989415 -0.7260876795 -0.5707910063
H 0.0862179268 0.3878499410 1.9753403565 -0.1775097942 0.2868065995 0.7988492320
B 3.1792734017 2.6514585687 -0.0903202809 1.4811248178 4.5851706591 -3.4522213966
F 2.8777733312 2.6780113488 1.3265142635 0.1482781083 1.2120243919 -0.9035317705
F 2.5384023973 1.4846209950 -0.6718402180 0.1836598525 3.1230219224 -2.7813103419
F 4.6194475521 2.4990626535 -0.2627767225 -1.8714211017 -0.0516301853 0.4040650098
F 2.7597579185 3.8896897549 -0.7503137361 0.3200768402 -2.2812817170 1.2616132571
24
energy=-20641.3850725127 config_type=IL_pair name=EMIM-BF4 Properties=species:S:1:pos:R:3:forces:R:3
C 2.7352906713 0.1896907710 -0.5787402141 2.9820215918 -0.6188300190 -2.4159476216
C 1.8768459730 0.4551958915 0.6149696219 1.0829649634 3.3556624721 1.7899528708
N 0.5024857037 0.0272536529 0.4098220900 0.3951915945 0.2304909731 -0.2088815812
C 0.0322415215 -1.2012521001 0.7065099937 -2.6001847325 -5.9488814479 -1.0414078668
C -1.3276396451 -1.2690162011 0.3829789980 1.6059379723 -2.2159143712 1.3927218223
N -1.6348324860 -0.0445623736 -0.1104396689 -2.0451173701 0.7257789232 -0.2537059471
C -2.9804058481 0.3097358235 -0.5733992687 -1.1653811067 2.2225153231 0.2430618531
C -0.5323922329 0.7144772507 -0.0868728175 -0.1475668627 4.9619911115 -1.7482862364
H 3.1184463014 1.1543383014 -1.0034863386 -0.4539568843 -0.7832025574 -0.0785307548
H 2.2369343364 -0.4288138260 -1.3655390437 0.0516403039 0.6873239668 0.4253491084
H 3.6547262380 -0.4008512111 -0.2986107141 -0.8470697105 0.5247824200 -0.0394141786
H 1.7868117265 1.5556226952 0.8491533999 0.2458882319 -0.6244309285 -0.4692746290
H 2.3311531273 0.0282366015 1.5383341190 -1.0076772881 -0.7273477031 -0.1881105925
H 0.5771428341 -2.0461163890 1.1318092360 0.0367667472 -1.9073154961 -2.6697145138
H -1.9965314166 -2.1180114366 0.5003938127 -0.2970990858 0.0977929742 -0.2228929333
H -3.7394343586 0.0621798538 0.2083380170 0.3633320879 -0.4176488915 -0.4948965709
H -3.1598724947 -0.1692059999 -1.5446136316 -0.3749603701 -0.2034641493 -0.1658606209
H -3.0175071227 1.4244976844 -0.6704167900 -0.0036712952 -0.5714044837 -0.3148746513
H -0.4634628283 1.7566010115 -0.4226392711 -0.1943175902 -0.0453527828 0.0079211875
B 1.7652409614 -2.4990499477 2.5994865099 2.3024907229 -2.4961783035 3.1075408828
F 1.4966121003 -3.5390845486 1.6301460156 -0.4423714614 1.9518245826 0.3156018423
F 1.1093576971 -1.2625591775 2.1932813862 2.1056618896 1.0138955264 5.4877497565
F 3.1986313832 -2.2550819166 2.6930583715 -2.2236360757 0.0383369502 -0.4124920660
F 1.2355942125 -2.8846829877 3.8994381307 0.6398452157 0.7445008381 -2.0439469145
24
energy=-20642.6235752209 config_type=IL_pair name=EMIM-BF4 Properties=species:S:1:pos:R:3:forces:R:3
C -2.6223348677 -0.3144378097 0.7678547874 0.2935080151 -2.3356547851 2.0282724329
C -1.9573466835 0.3418532018 -0.3999495444 -2.0858837362 0.1832173911 -2.0255050879
N -0.5306858023 0.0043055223 -0.4336344292 -1.7266009943 2.4170585207 0.4892870414
C 0.0518894212 -1.0373053022 -1.0546526817 2.6926271332 -1.9798537968 -0.9294984723
C 1.4086824764 -0.9162109192 -0.7896206300 -0.7877384485 -3.3671194633 -2.3566801662
N 1.6083219043 0.1859212069 -0.0220573531 1.2950299140 -0.1643825473 -0.0769066294
C 2.8880743949 0.6619164680 0.4709359867 1.7416658319 -0.7153205366 0.8309992673
C 0.4088331767 0.7555203180 0.1982969557 -0.8707264633 2.0336197274 1.2482834541
H -3.4950647093 -0.9109227886 0.4656022582 0.0063355646 0.1898957016 -0.1381871160
H -1.8933348161 -1.0398560266 1.2293846357 -0.7643675981 0.6326041581 -0.2593523095
H -2.9337400700 0.4452049805 1.5427040283 -0.6027325884 0.4723146612 0.9185697344
H -2.1050748077 1.4387287948 -0.3905709274 0.4259279907 0.0540615650 -0.1321513950
H -2.4151021736 -0.0760382020 -1.3289020211 0.5087107732 0.4874002735 -0.0454435974
H -0.4475204344 -1.7997537398 -1.6345533321 -0.5453567426 -0.2862094806 -0.2716208901
H 2.1515778881 -1.6191834840 -1.1613695052 0.6590029840 0.1789686143 0.2125821489
H 2.7858512472 0.7260754538 1.5714581132 0.4340581654 0.5257797815 -0.0477351884
H 3.6726364021 -0.0920273600 0.2182673725 -0.4376273674 0.2636972745 0.1782088443
H 3.1526146641 1.5917625553 -0.0329148040 0.1207825982 0.8287173171 0.1340894453
H 0.2717227898 1.6544471305 0.7837210905 -0.4352437519 0.5361817002 0.3388310010
B -3.4287462349 2.3097185162 3.4637930231 0.3289325918 1.3382207943 1.1745302403
F -3.6109375792 1.2384129891 2.5233620104 -0.3330123308 0.0059679753 0.2646269628
F -4.0953589179 3.4853310643 2.9727382307 0.3579596225 -0.9162093495 0.1785405685
F -2.0223283398 2.5923593350 3.5741350271 -0.8175370966 -0.3705090775 -0.1447198683
F -3.9669080133 1.9774418044 4.7694459391 0.5373161931 0.0058314470 -1.5661139387
24
energy=-20596.4306457231 config_type=IL_pair name=EMIM-BF4 Properties=species:S:1:pos:R:3:forces:R:3
C -2.6943547857 -0.0521697242 0.5693266176 1.4640036856 9.2677589115 12.6700533616
C -1.8231030134 -0.8455490798 -0.3846951840 71.6801222362 -6.6960183840 54.7474784714
N -0.5046863215 -0.2722227572 -0.3941957829 -1.5017536213 1.3020293756 2.5101722218
C -0.1070407551 0.7050381958 -1.2332466705 2.9996347395 3.9455639898 -2.5222131798
C 1.2248278459 1.0003645060 -0.9478343834 -2.3101408821 1.7270459711 -2.8481466011
N 1.5984801774 0.1890936277 0.0617622035 4.5847655520 0.6988260204 -0.2159855534
C 2.9237802075 0.1652808312 0.6759639533 1.1584293006 -1.1969418508 0.7428057485
C 0.5454106075 -0.5792331358 0.3920796495 0.2824290244 -5.0447534656 4.4792546384
H -2.0561030552 0.1686739142 1.4596126502 -0.8649896516 0.6616854720 -0.3026088147
H -3.6030144209 -0.6011840406 0.8867664090 0.9340784947 0.7873836223 0.5714337293
H -2.9671720929 0.8856345517 0.0080941134 0.2064554361 -0.3005152264 1.4249439438
H -1.7299626408 -1.8856922161 0.0018153587 1.5889784506 -0.2926623771 0.9490436257
H -2.2841451062 -0.8667270934 -1.4127783856 48.7798764862 -7.5794537701 -87.9962857745
H -0.7261849482 1.1661851296 -1.9879019040 -0.5924298954 0.2856175435 -0.1737124254
H 1.8490889111 1.7349602907 -1.4338007320 0.5668922027 0.2926591093 -0.0747964441
H 3.2721838643 -0.8833415331 0.8802389671 -0.3217502527 0.4563092647 -0.3273800703
H 3.6645493532 0.6456939786 0.0137020976 -0.0605800914 0.2354458626 0.1745241631
H 2.8660026262 0.6524754490 1.6726509900 0.2427749575 0.2982183077 -0.1471179621
H 0.5514435467 -1.3272808944 1.1724400326 -0.2150912801 0.2672426389 0.4511076814
B -4.0501521865 -1.0687100742 -0.9678288413 -16.2202995204 -1.9836042635 -1.8175518502
F -4.3958296079 -2.0918161726 -1.9470305795 1.7082500098 1.7843153934 1.9079766981
F -4.7346727089 0.1662774941 -1.3313864482 2.1462033334 -2.1522795758 0.4035101366
F -2.6175997043 -0.8279579669 -0.9260922523 -115.0363478138 5.0701221593 17.6844858102
F -4.5173529344 -1.4486204739 0.3555324491 -1.2201972661 -1.8457183743 -2.2956955616
24
energy=-20642.5232020175 config_type=IL_pair name=EMIM-BF4 Properties=species:S:1:pos:R:3:forces:R:3
C -2.6455787605 0.6025581815 -0.3792115314 -1.3780500085 1.0361841107 -1.7780001535
C -1.9177227504 -0.1201204643 0.7369722073 -1.3807089274 0.0756063731 1.7076429192
N -0.5291762382 -0.3695272223 0.3619313050 -0.9659881348 0.8329856745 1.2179277039
C -0.0119839928 -1.4396705787 -0.2713035813 1.2019600720 -2.7766096464 -1.6087088545
C 1.3459840965 -1.2124506808 -0.4001718590 -0.6446259164 -3.8515002957 -1.1109927516
N 1.6356957896 -0.0152700634 0.1524703355 0.5630549451 0.7991124869 -0.1247309772
C 2.9299574894 0.6328909471 0.2476608241 2.0731224798 1.0217846282 0.3805163129
C 0.4770145207 0.4913987225 0.6162166034 -0.7800041251 3.3634681578 1.7624932099
H -1.9525380509 0.8864398348 -1.2010792923 -0.2128070449 -0.0441142184 0.4081628456
H -3.4164907042 -0.0572330355 -0.8271994899 0.1497004253 0.3326881106 0.1432566869
H -3.1351519439 1.5296369221 -0.0012623971 0.1732925059 -0.5181960003 -0.2443886711
H -2.4276566184 -1.0683314076 1.0042272360 0.3750411336 -0.0817134169 -0.1466814006
H -1.9219722060 0.5070550968 1.6526831699 0.2488712380 -0.1531683294 -0.0576656181
H -0.5866757880 -2.3011285036 -0.6032476702 -0.2434160726 -0.1326596256 -0.0075270834
H 2.0361172320 -1.8990165782 -0.8707699027 1.0543060946 -0.1498198676 -1.3094529031
H 3.3310203817 0.4189689478 1.2637476978 0.1878398599 0.2445127295 -0.2078365923
H 3.6421221370 0.2370327771 -0.5194830419 -0.5713866240 0.1220306781 0.2250238348
H 2.7849874130 1.7317597307 0.1145479534 0.2152854721 -0.4490001631 0.0415226602
H 0.3620479933 1.4450073739 1.1184049670 -0.0484584400 0.4253101462 0.1787809475
B 2.6533116884 -1.3695533654 -3.8899106561 0.8089534684 0.7749085339 -1.7609768748
F 2.5062905306 -2.4684356025 -4.8129643446 -0.1809493025 0.8771872438 1.2377241045
F 1.9648541541 -0.1984193029 -4.3858763447 0.3660177041 -1.0972283584 0.6241026741
F 4.0572306798 -1.0508447776 -3.7797288163 -1.0103070785 -0.2780754174 0.2865058990
F 2.1365980993 -1.6965581239 -2.5795731751 -0.0090821258 -0.3600775282 0.1399776075
24
energy=-20642.5098519380 config_type=IL_pair name=EMIM-BF4 Properties=species:S:1:pos:R:3:forces:R:3
C 2.5800271567 -0.5799765491 -0.4509363260 0.2350228754 -1.2904031799 0.3919649783
C 1.9204592835 0.4057872333 0.5210613076 2.2956977403 -0.6567240191 0.6232178352
N 0.5156112501 0.4595804438 0.1414523452 2.2339832712 -0.9947621990 1.7501637526
C -0.0441771723 1.3024150363 -0.7468400083 -2.3931062646 3.0582627743 -2.0275252641
C -1.4032879820 0.9847430009 -0.7823911528 0.6606101221 2.4125047143 -2.4828701270
N -1.5868293391 -0.0381464956 0.0921240211 -1.8218908982 -0.7363991233 0.9618235288
C -2.8492136403 -0.7188251262 0.4050893882 0.0066363928 -1.5623872906 0.3414203478
C -0.4085272980 -0.3668232581 0.6649740505 -0.1585122158 -1.4749089538 1.1099287273
H 2.3709421543 -0.2442713249 -1.4651891453 0.0739585830 -0.3088143930 -0.6003743931
H 3.6614247754 -0.6152421203 -0.2702812604 0.1530367049 0.0084840622 -0.1099209765
H 2.1505756722 -1.5944297440 -0.2243321753 0.4241302139 0.7089119186 -0.7283944773
H 2.4072159924 1.3948314601 0.4511421164 -0.4194998694 0.2827851237 0.2934965602
H 2.0348545904 -0.0442962512 1.5316943033 -0.3634558799 0.7370614038 0.0332176200
H 0.4584555881 2.0861299754 -1.3314668683 0.2924757988 -0.2660332585 0.2396977497
H -2.1762657460 1.4633249544 -1.3941641304 -0.1563744941 -0.2696783149 0.2380305836
H -3.6980152940 -0.0571166021 0.2313605412 -0.4074109174 0.2089876976 -0.2024776761
H -2.8427081043 -1.6273244115 -0.2269419297 -0.7513782972 0.0080233865 -0.1327369825
H -2.8113952014 -1.0606839953 1.4557622732 -0.1682058086 0.2568933108 0.0458286436
H -0.2791466854 -1.1496762259 1.3978826498 0.2838811890 -0.3441418849 0.4740696729
B 0.3013439509 3.4788889478 2.1658396365 0.1941135420 1.9366773498 1.5465492655
F 0.0888477806 2.3869189966 1.2284000928 -0.0925442146 0.4797850072 0.1063110845
F -0.3308190648 4.6933480544 1.6785499396 0.4997365444 -1.5647619780 0.1917530977
F 1.7241840790 3.7254292028 2.2830594193 -1.3848049283 -0.6690196693 -0.2204920730
F -0.2758000345 3.1380261465 3.4632014890 0.7670982823 0.0478194636 -1.8385748177
24
energy=-20636.9139592260 config_type=IL_pair name=EMIM-BF4 Properties=species:S:1:pos:R:3:forces:R:3
C -2.5607439052 -0.1937650569 0.8971477855 0.7432538805 3.2355656310 0.1963579181
C -1.9112399063 -0.6470263422 -0.4103386050 2.0183516400 6.2000415292 8.4439054515
N -0.5492915222 -0.1355843212 -0.3889495328 -0.9825956294 0.3808069147 1.2394581393
C -0.2129769749 1.0781077167 -0.8837408690 1.9822104044 3.4323736152 -1.1472861218
C 1.1632790491 1.2547333399 -0.7056744720 -2.7409663760 2.1596664488 -1.5591271658
N 1.6027331027 0.1227932856 -0.1023197545 1.4337118307 0.2485830450 -0.0342607000
C 2.9605279978 -0.1557847393 0.2816073140 2.2622107342 -1.4510977001 0.4729318594
C 0.5639000265 -0.7136259680 0.0866139810 -0.2389690560 -2.6277247318 1.2741732052
H -3.5825122695 -0.5576731030 1.0027645554 -0.1327721741 -0.4240065874 0.2104930087
H -2.5768720401 0.9256322696 0.8321750183 -0.5204997989 -0.4745519861 0.7904330701
H -1.8769469225 -0.4445928212 1.7177197939 -0.5679542615 -0.3353093218 0.6192514318
H -1.9098137837 -1.7541083429 -0.3663858161 0.6623773272 2.7007724783 5.2689488673
H -2.4267369284 -0.2451481597 -1.2933937223 0.5426911609 0.8412294447 0.5983728175
H -0.9068797782 1.7895598635 -1.3416642158 -0.2431029615 -0.2541486728 0.0754989734
H 1.7201008865 2.1310388550 -1.0037706435 0.8430884731 0.1578089501 0.0642847402
H 3.6137880648 0.6941303513 0.0032602346 -0.1258379845 -0.1462295575 0.2901306056
H 3.3095769975 -1.0842073986 -0.2417684053 -0.0254345643 0.5182518206 0.1853625054
H 2.9533923991 -0.3725834764 1.3683821356 0.4772554436 0.2810935713 -0.0020009258
H 0.6267155072 -1.6918959521 0.5483352179 0.0041549560 -0.4305851165 0.2019919535
B -2.4010786258 -2.2396605033 -1.5790908898 -1.1653767413 -5.4858169089 -6.9781473199
F -2.5751281024 -3.2564747939 -2.5855319665 -0.1497138648 1.7311749597 1.6855031617
F -3.0862487296 -1.0189997865 -1.9601654886 -4.7625911730 -3.2244685005 -5.6961158967
F -0.9826522838 -1.9321985632 -1.4883383480 1.6526331819 -4.6921702849 -4.9848075048
F -2.8453824239 -2.6856860106 -0.2707920519 -0.9761719235 -2.3282928416 -1.2119514340
24
energy=-20601.1847441592 config_type=IL_pair name=EMIM-BF4 Properties=species:S:1:pos:R:3:forces:R:3
C -2.5244290168 0.9693256549 0.1473819049 34.6237903141 13.4614623655 -9.0706629760
C -1.9457595622 -0.1834211786 -0.6390691697 -0.0481530228 -0.2208439717 0.8323997910
N -0.5903623021 -0.3770393557 -0.1514663503 -3.3103533911 0.0805072829 -1.2991828020
C -0.1903996649 -1.1816022849 0.8724024490 2.4636355351 -2.0339705615 2.9585122768
C 1.1980822105 -1.0380785520 0.9694278676 -2.4312140397 -2.9008661334 3.0963290415
N 1.5795885582 -0.1713183612 0.0220421708 3.7559970293 0.8798613957 -0.1049181041
C 2.9542362955 0.2700260850 -0.2342232870 0.9022025284 0.8195644641 1.5315468421
C 0.4938175915 0.2327516702 -0.6616944738 0.9315127684 3.9374858830 -5.1702527515
H -2.8164084592 1.7736376458 -0.5848943037 -0.0841932972 -0.1332794197 0.7262415988
H -1.7783240689 1.4565864455 0.8199113897 1.7621865534 0.3130175360 -0.8335297421
H -3.4027170615 0.6199928463 0.6916155267 140.3841886907 40.1736929872 129.7714136491
H -2.5055820939 -1.1314162752 -0.4316386643 0.0111818231 -0.4273390743 -0.5808853758
H -1.8814980322 -0.0026247874 -1.7207143146 -0.2236874708 -0.0979434277 -0.3016497354
H -0.8359960797 -1.8042836945 1.4818452851 -0.3661156460 -0.1016546929 -0.0240218848
H 1.8278139631 -1.5529027357 1.6962031793 0.4666406327 0.2017981570 -0.1486167140
H 3.5751170208 -0.6234455027 -0.3262660900 0.5445607240 -0.2633355448 -0.5257201843
H 2.9866905345 0.9422748312 -1.0919936748 0.0131656932 -0.0939832459 -0.6662606105
H 3.3520325990 0.8547311731 0.6415327564 -0.3132404958 -0.3277788001 -0.3870849413
H 0.5040975682 0.9468063759 -1.5004022014 -0.0284411299 -0.4546832599 0.4550041712
B -5.0456259389 1.0813755074 -0.0133347946 -9.2607141660 3.7248915183 -2.7720407015
F -5.8390882794 1.4404273493 1.1346022237 2.0195236143 -0.9078648323 -1.2921617072
F -4.7505034159 2.2681440220 -0.7935123853 0.4306108827 -2.0153105466 1.4216193338
F -3.7735516915 0.5122044334 0.3841967128 -174.2449509462 -54.5232382652 -119.2899174091
F -5.7752581238 0.1596675115 -0.8535711826 2.0120393928 0.9001213073 1.6601883267
24
energy=-20642.0273504470 config_type=IL_pair name=EMIM-BF4 Properties=species:S:1:pos:R:3:forces:R:3
C -2.6632747383 -0.0264944802 0.7024658328 -0.8249806813 -0.2340113216 2.2775509155
C -1.9088116547 0.2330227357 -0.5758945141 -2.3149562738 0.0820993658 -1.7488831873
N -0.5119583995 -0.1054186536 -0.3767438139 -2.5590355038 1.5888452253 -0.9532886289
C 0.0499467151 -1.2973918656 -0.5899872431 2.3373385923 -4.2762308040 -0.6913665643
C 1.3841595272 -1.1542609284 -0.2701374346 -0.4007228723 -3.5534191669 -0.8821135736
N 1.5803350196 0.1178771822 0.1245156335 1.9980426392 2.1082656030 1.0057859156
C 2.8674129241 0.6842121356 0.5520717572 2.3066093582 0.5959446431 -1.7886801793
C 0.3987802714 0.7858821066 0.0620922850 -0.0105973842 3.1870894409 0.9633195393
H -3.5405965791 0.6663944157 0.7493668756 0.4657726492 -0.6787845430 0.3043895910
H -2.9771722223 -1.0917552707 0.7400354257 -0.1739653928 0.5154102194 0.0686681972
H -1.9638594107 0.1188646626 1.5671245620 -0.8522263662 0.2430201760 -0.3796155044
H -1.9990471488 1.2960048465 -0.8761824683 0.2559502077 -0.1373310313 -0.1357267059
H -2.3919983163 -0.4261784345 -1.3542035664 0.9473655779 0.6753522286 0.0805176744
H -0.4136592800 -2.2301098675 -0.9464682097 -0.3815454858 0.4790921127 0.1006600086
H 2.1791829768 -1.8856706257 -0.3064681654 0.4670505453 -0.4381553017 0.0632141391
H 3.0539812811 1.6754654119 0.0570204608 -0.5994474479 -0.3234827923 0.5737858811
H 2.9527187842 0.7589377378 1.6333782864 -0.0218214169 -0.0006133216 0.7837115481
H 3.6873813364 0.0426373241 0.1215015934 -0.6867596085 0.0872382616 0.7327135794
H 0.2164789137 1.8379815675 0.3161237394 0.0398655535 -0.2034027779 -0.0560494620
B 1.1380833670 -3.8652776356 2.7763351268 0.4668282944 -0.4836411917 0.5064257227
F 0.8977254247 -4.9625881394 1.8757374370 0.2018786804 1.0077390853 0.5362868625
F 0.5137705093 -2.6539097239 2.3012581489 0.2666740479 -0.4230501899 -0.0720157430
F 2.5691639607 -3.6383177572 2.9131684638 -1.5300365705 -0.2205886504 -0.1698342984
F 0.5387184220 -4.1885396485 4.0665855367 0.6073267254 0.4044931564 -1.1191668228
24
energy=-20641.9750777787 config_type=IL_pair name=EMIM-BF4 Properties=species:S:1:pos:R:3:forces:R:3
C 2.6163854527 -0.9366887868 -0.3566516455 -1.1522609762 -2.5186086629 -2.8956566773
C 1.9564706065 0.3337454686 0.0897282729 3.0711585995 1.7454051831 0.9369076348
N 0.5430345904 0.3609630299 -0.1862487404 0.9501517644 0.3224883147 0.6156021653
C 0.0159225085 0.8370476094 -1.3394818384 -1.9672756806 0.8427691714 -2.3647036472
C -1.3463305650 0.6870597620 -1.2082328973 0.3242939870 1.8679778718 -4.2340021531
N -1.6444930513 0.1354955499 -0.0101624729 -0.1709917827 -0.2764010069 0.9931973998
C -2.9539368157 -0.1843320987 0.5119808066 -2.8202024889 -1.5049561884 -0.4544949932
C -0.4502751306 -0.0610781196 0.6142934650 0.1255632668 -1.2959030694 2.9343501616
H 3.1768777686 -0.7717928521 -1.3196114874 -0.5637226477 -0.1344854239 0.9307783634
H 1.9212305661 -1.7710358145 -0.5452521140 -0.4138316372 0.2854768925 0.0496022916
H 3.3694063800 -1.2455773417 0.3892959232 1.1323945352 0.6930711292 0.2551488950
H 2.4514107339 1.1805708882 -0.4563706303 -0.5031125958 -0.2018361325 0.3660403908
H 2.1451319510 0.5514016727 1.1628184069 -0.3719872600 -0.1996473065 0.0094236291
H 0.5735740019 1.2500780014 -2.1858687384 0.2421236346 -0.0489717504 0.1808038375
H -2.0381634595 0.9864225530 -1.9881169125 -0.8132776112 -0.0760501536 0.0749821776
H -3.1091042548 -1.2950687744 0.5757712960 0.4198357828 0.5333675474 0.3038238414
H -3.1932421629 0.2888847252 1.4711879933 0.3223630130 0.2012412777 0.4067724599
H -3.7074107750 0.1432664703 -0.2342035864 0.2183401968 0.2381979370 0.1679524992
H -0.3264883450 -0.4893619428 1.5985269351 0.1356259227 -0.2366349383 0.6123058096
B 5.2801693913 0.3847509335 1.1763221920 1.0261081563 1.1171182954 1.3247639589
F 5.0174986356 0.4131671537 2.6048991587 -0.0346946575 0.0005394919 -1.4043630699
F 4.6705503076 -0.8088769221 0.6361658606 2.1521043576 0.1999443303 0.9337346578
F 6.7172102318 0.2833929225 0.9993978132 -1.5597524299 0.0719980045 -0.1296038994
F 4.7747047665 1.5996802996 0.5625682948 0.2513971531 -1.6310035362 0.4018116756
24
energy=-20642.9692945124 config_type=IL_pair name=EMIM-BF4 Properties=species:S:1:pos:R:3:forces:R:3
C 2.6141310832 -0.8179200622 -0.3693581730 1.1967092167 -0.8895199412 -1.3477819254
C 1.9331599425 0.1438799407 0.6082083476 1.5246013779 -0.7478631093 0.4021060750
N 0.5413515608 0.3659805018 0.2023778709 2.0613701441 0.1075467053 1.1573253105
C 0.0744818119 1.3299503796 -0.6337716737 -1.7444519453 2.2919156613 -2.1696773078
C -1.3057495101 1.1590403550 -0.7283250324 2.7300939883 3.0292502652 -1.9827627013
N -1.6020238280 0.1043103518 0.0525963321 -2.8218589800 -0.8695179497 0.7445107202
C -2.9503071000 -0.4218255059 0.2428824781 -1.7595333808 0.1333724659 -1.2670228486
C -0.4924255932 -0.3874552259 0.6237818927 -0.1840809132 -1.9442968902 1.5957759368
H 3.6780015249 -0.5217940809 -0.4915896096 -0.3137418919 -0.2293223204 0.1581449235
H 2.1524793451 -0.7379611018 -1.3795966854 0.1366000809 -0.2811560558 0.4832629020
H 2.5877641316 -1.8705593101 0.0046666325 -0.1811807799 0.6213679253 -0.4389406059
H 2.5175837258 1.0690544587 0.6710923218 -0.3904514674 0.6679047370 -0.0341152896
H 1.9598161449 -0.3493493048 1.5828684735 -0.3817686217 0.1809617768 0.7124867910
H 0.6684560367 2.0940853318 -1.1365981728 0.4333167681 -0.0500755448 0.1205893563
H -1.9627070125 1.7837610455 -1.3290010896 -0.6808541117 -0.1989949693 0.0417735488
H -3.4152548975 -0.4928307577 -0.7836675469 0.2969828479 -0.0206198157 0.9590764774
H -3.5873928737 0.2187863746 0.8708205939 0.2596788165 0.4566694350 0.1090701691
H -2.9229401780 -1.4326548149 0.6999152581 -1.1535984023 -2.4839165556 0.1446489933
H -0.4884243143 -1.2364985754 1.2926977821 0.1949794275 -0.6548834757 0.4347166624
B -2.9829941979 -4.0712311243 0.8634625921 0.4228297362 -1.3709844707 0.5579431372
F -3.7079356058 -2.8165235288 0.8459728256 0.9409173514 0.6010670882 -0.0275355260
F -2.8437520969 -4.4769146539 2.2515423647 -0.1331078046 0.4098201509 -1.1990984728
F -1.6546340498 -3.9167418595 0.3091297754 -1.3244204003 0.2294537760 0.3078639230
F -3.7561921258 -5.0497678262 0.1459916668 0.8479527637 1.0017769629 0.5419017207
24
energy=-20642.5669647525 config_type=IL_pair name=EMIM-BF4 Properties=species:S:1:pos:R:3:forces:R:3
C -2.7978864441 -0.0673929596 0.0591561988 -1.3208040649 0.8359162488 1.8737867516
C -1.7700514896 0.6846137034 -0.7595072024 -1.9294595867 1.1425750159 -0.9784097979
N -0.4229361740 0.1930683520 -0.5656737842 -1.1838787869 0.3500402067 -0.5751510069
C 0.1554802465 -0.7883180786 -1.3000233968 1.4443456085 -2.9463864383 -2.3475733331
C 1.4303604697 -0.9858696945 -0.8325517874 -0.7834001278 -2.4353462391 -2.9771983900
N 1.6068417755 -0.1175846404 0.1827175468 2.0234637150 0.8107346395 2.0698272678
C 2.8342794099 0.0205284918 0.9812224626 1.2355312528 2.0065160325 0.0302646215
C 0.4728881314 0.6060038291 0.3483905284 -0.4575544561 2.3828391665 2.3880786937
H -2.9394203055 -1.1032712181 -0.2647873765 -0.1037237532 -0.2146997644 0.0247050692
H -2.5036669723 -0.0089356171 1.1447832243 -0.3858306769 -0.3886077454 -0.8500486893
H -3.7444912027 0.5386596500 -0.0515724250 0.6409058397 -0.9527128139 0.1067923946
H -1.8209236256 1.7532411849 -0.4820117776 0.1179079744 1.0762840744 -0.2029445474
H -2.0623161091 0.6328877401 -1.8305024444 0.5739267349 -0.0377898902 0.0718535927
H -0.2784807558 -1.3536567408 -2.1305095763 -0.5324121840 0.3559442004 0.0505931532
H 2.1280514523 -1.7187115740 -1.2397751447 0.5139098064 0.1124742188 0.3722124846
H 2.9085472008 -0.7742908334 1.7232566455 0.2923948484 -0.6236358573 0.2536540074
H 2.8159131722 1.0113238514 1.4987558517 -0.2310189123 -0.5222927661 -0.0704739514
H 3.6929129093 0.0880297503 0.2702395139 -0.1768697920 -0.5950340017 0.4516611596
H 0.2948983110 1.3896748035 1.0855859806 0.0685539966 0.2412543063 0.1604798340
B -1.7667486725 4.2917868080 -0.9695476083 0.0044401804 0.7838968738 0.3952123999
F -2.0483225467 3.2723461866 -1.9423997628 0.2152166986 0.1409874494 0.7331260708
F -2.4752581864 5.4944115404 -1.3108103628 0.4891064405 -0.7841853107 0.0892950818
F -0.3534955361 4.5485562461 -0.8998264989 -0.8858092418 -0.3094253239 -0.1416287890
F -2.2232608628 3.8659506922 0.3423833184 0.3735188220 -0.4421271701 -0.9387476970
24
energy=-20643.4175639864 config_type=IL_pair name=EMIM-BF4 Properties=species:S:1:pos:R:3:forces:R:3
C 2.5909985288 0.8318799018 0.3852943026 0.1963821728 1.5905857269 0.0576966996
C 1.9270970809 -0.2434767102 -0.4605587685 3.0346404719 -0.9217886008 -1.1241187736
N 0.5528652314 -0.3749885846 -0.0476705272 2.3390948302 0.2969598639 -1.0746195571
C 0.1042555921 -1.2068195883 0.9119812346 -3.9982212011 -2.1512322561 2.9421911898
C -1.2729627165 -1.0086431185 0.9804648956 2.9376692097 -2.7750813548 2.1547528260
N -1.6025853790 -0.0617961136 0.0563567572 -2.1741901414 0.4926103741 0.7653323384
C -2.9674430478 0.4069938171 -0.1604221875 -0.7833306194 2.1531631038 0.6372399789
C -0.4762769833 0.3220093759 -0.5704769416 -0.4024816972 2.0857510449 -4.3577799805
H 3.6643725359 0.9336666514 0.1462410282 -0.1066575272 -0.2402873227 0.2186665058
H 2.4273264657 0.5389040081 1.4404818477 0.3183379134 0.5943625700 -0.1173118285
H 2.1129158925 1.8119781362 0.1328169358 0.2636652788 -0.4984952130 0.6557687299
H 2.5042331333 -1.1937255508 -0.2874976088 -0.9019758485 0.2458279046 -0.0927073473
H 2.0034483724 -0.0381918104 -1.5464676028 -0.3443172518 0.1330228130 0.0242955479
H 0.6480879080 -1.9043206640 1.5325896043 0.8316248584 -0.1544080619 -0.0365481435
H -1.9195478914 -1.5331373059 1.6582290413 -1.0175787120 -0.0940914401 0.2848569261
H -2.9139238074 1.2772561008 -0.8566225568 -0.2475335187 -0.5952682186 -0.1939891714
H -3.3628542957 0.7948304963 0.8222791604 0.0526011817 -0.4638390718 -0.6951686480
H -3.5758050282 -0.4196338392 -0.5340098909 -0.4577823623 -0.1923722873 -0.3520749023
H -0.4442015919 1.0672147981 -1.3561797025 0.3734677297 1.8875050750 0.6950157779
B -1.2257794919 0.1932200428 -3.4978668800 -1.9611791427 1.0122125761 -4.0550025906
F -1.8945169852 1.4522211234 -3.2182556072 1.2595978501 -1.5303295425 0.4059472104
F -0.6317206733 -0.3501682580 -2.2933295023 0.5645965797 -1.8145058985 0.3870448443
F -2.2178133113 -0.7549841736 -3.9877545573 1.6441843110 1.1633451253 1.0643685106
F -0.1595807099 0.3559956733 -4.4743887296 -1.4265421123 -0.2095743564 1.8000459485
24
energy=-20642.8643441703 config_type=IL_pair name=EMIM-BF4 Properties=species:S:1:pos:R:3:forces:R:3
C -2.6130904138 0.5451216145 -0.5739338440 -1.2978536864 -0.2981107964 -1.9989293672
C -1.8721308145 0.3500243892 0.7254040157 -0.7615115823 0.4315996067 1.0895339772
N -0.5323208856 -0.1593592547 0.4112906227 -0.9394758226 0.8927944559 1.0289966827
C -0.1523023506 -1.4445454072 0.2950622550 1.9664896051 -4.0102017865 -0.5202966150
C 1.2088212781 -1.4560351361 -0.0120450111 -1.9575306648 -3.8729589861 0.3153052462
N 1.6125220193 -0.1732549571 -0.0725511814 0.9627592525 1.1040132354 -0.3380052351
C 2.9294629328 0.3661401402 -0.3565861438 2.1406651973 1.1517050652 -1.2540701396
C 0.5447560335 0.6029734465 0.1866101935 -0.0056976073 3.2788731876 -0.3791275096
H -3.3412290358 1.3675580090 -0.4264185791 0.2175554359 -0.1682986831 -0.4610981991
H -3.1806218583 -0.3790553365 -0.8662429547 0.5146047690 0.7099689672 0.0739117423
H -1.8558056719 0.7845072584 -1.3709936284 -1.0098558472 0.1079387808 0.4707438979
H -1.7973249534 1.3420705480 1.2164746981 0.4209999195 -0.3369851022 0.3525732233
H -2.3532253644 -0.3972726359 1.3820929558 -0.0563292302 0.1949280057 0.2089659681
H -0.7978083338 -2.3033370708 0.4201643453 -0.5050522717 -0.2819956699 0.1385519392
H 1.8456433856 -2.3201688242 -0.1761662408 0.3726531605 -0.1628762395 -0.0748840011
H 2.9559155414 0.9181162275 -1.3408508001 -0.2170479761 -0.5208994931 0.6551231637
H 3.6999825234 -0.4231248197 -0.3614876496 -0.2331891535 -0.1989416180 0.0050956797
H 3.1679122423 1.0960439003 0.4226211775 0.1935687654 0.6372797096 0.3759976025
H 0.5308437255 1.6835979086 0.2154353094 0.4613087087 3.0021186623 0.9543151708
B 1.7898533692 4.3220833592 0.7363497354 0.5906114725 1.2240445461 0.3520565809
F 0.7056645985 3.3953680098 1.0335176555 0.4339977696 -0.9034565613 -0.8319256703
F 2.1617594889 5.0262066006 1.9556038818 -0.5488230045 -0.8307298381 -1.1180244503
F 2.9551651230 3.6316457440 0.2498207252 -1.0654487666 -0.0721099648 0.1971104684
F 1.3303787097 5.2917202600 -0.2321850797 0.3174542489 -1.0841466795 0.7581414064
24
energy=-20638.1547759796 config_type=IL_pair name=EMIM-BF4 Properties=species:S:1:pos:R:3:forces:R:3
C -2.6569087207 -0.1054659634 0.7624392356 3.6138411814 10.4238615893 7.8516284163
C -1.9192144175 0.3945154359 -0.4605509403 -2.7373826803 1.9723156942 0.2174965320
N -0.5140682455 0.0052122184 -0.4326760616 -1.1270607781 0.9690578482 -0.7461774088
C -0.0151380592 -1.1439806483 -0.9537030399 1.5666737074 -2.6215099584 -0.5445270989
C 1.3557783516 -1.1160935099 -0.7123855390 -1.3150920791 -3.2317640243 -1.9190005064
N 1.6152756268 0.0338370295 -0.0655800363 2.9157347785 1.2827025288 1.3163141410
C 2.9187975681 0.5248286556 0.4077937062 0.7795939012 0.8786460657 1.7079557993
C 0.4865917511 0.7252113529 0.1108940358 -1.5066981611 2.2192742824 0.9726729754
H -1.9269270669 -0.6964757427 1.3628176669 -0.7030447640 0.0628807460 -0.1792704982
H -2.9558428417 0.7350640851 1.4404386782 1.2108655433 0.6426165006 -0.2623465093
H -3.4900936976 -0.7858843394 0.5262237262 -2.3180930990 5.7692407858 3.7483812770
H -1.9475699942 1.5068443412 -0.4225859561 0.1596563897 -0.2532038338 -0.6943873018
H -2.4164429677 0.0142609395 -1.3733899729 0.6492361549 0.0274808182 -0.4451441576
H -0.5929776858 -1.9087114835 -1.4508686641 -0.5621110251 -0.3289417907 -0.3241315039
H 2.0724056676 -1.8739132667 -0.9918306703 0.6869817103 -0.1574515365 0.0100950067
H 3.7336367590 -0.0762477504 -0.0225485679 0.0524159885 0.0999456727 -0.1617788597
H 2.9591789162 0.4827334264 1.5352625458 0.0023494106 -0.3026177802 -0.7875816462
H 2.9714703402 1.6016395334 0.1537363906 0.4066395412 -0.1874708612 -0.3176391376
H 0.3220487162 1.6826256864 0.5865134631 0.2872413543 0.5380892342 0.3050775037
B -2.6735031071 -2.8889439642 0.3744552050 0.2212346963 -3.7534040648 1.0164728847
F -2.9572984378 -3.8585037130 -0.6572598788 0.3683706186 1.6728267907 1.0397029667
F -3.2887932534 -1.6112095977 0.0410893977 -2.1175762990 -17.2780934201 -9.7026481003
F -1.2276831573 -2.6799467356 0.4617793936 -1.3072252659 0.3286094444 -0.2472699162
F -3.1837959363 -3.3816633900 1.6402427129 0.7848247901 1.2238094264 -1.8670597830
24
energy=-20632.5047478492 config_type=IL_pair name=EMIM-BF4 Properties=species:S:1:pos:R:3:forces:R:3
C -2.6267137247 0.2941303955 -0.6451679363 -1.3326845895 1.5966095957 -0.1361432359
C -1.9350858734 -0.1484973779 0.6385218517 -0.9039166194 0.7266128072 0.9497823635
N -0.5315466910 -0.3339620439 0.3243037940 0.3045448530 5.2542231345 1.7783335417
C 0.0603935131 -1.4620479708 -0.1012382527 -3.9335916882 7.1785711813 8.5895492298
C 1.4107911880 -1.2000619343 -0.2806387781 1.4213997541 4.3366956879 1.1829064893
N 1.6091460116 0.1071381640 0.0471156892 1.5110047277 0.2905447569 0.3856700271
C 2.8613461722 0.8363938985 0.0164788260 2.4504029776 1.2652926061 -0.1318365755
C 0.4283840838 0.6093406322 0.4080833656 -1.9444506799 4.6959917841 1.3689127458
H -2.2149442126 -0.2182388449 -1.5299752425 -0.1310849786 0.1388220139 0.0782783164
H -3.7087127380 0.0853577907 -0.5358024736 0.1943455559 0.1351700546 -0.3952411030
H -2.4842830582 1.4084359910 -0.6898069289 -0.2014111767 -0.9239683613 -0.7023560103
H -2.4190941962 -1.0479308312 1.0481283654 0.5200096407 -0.6014171127 0.0285959110
H -1.9986539296 0.6498296539 1.4065689549 -0.1465912913 -0.1640488370 -0.0435246865
H -0.4600124725 -2.4107033278 -0.2686764963 -12.3319014196 1.9430483945 7.5943718920
H 2.1386713811 -1.8996271913 -0.6120105218 2.2357517240 -1.1070255169 0.1526873263
H 2.9991483428 1.3600148713 -0.9694904962 0.0503843056 -0.5497129779 0.4681548334
H 2.8938013605 1.6215680124 0.8009179412 -0.2092059843 -0.2183078609 -0.0386913738
H 3.7021357374 0.1147611858 0.2199578701 -0.6104109515 0.5537120890 -0.4107135011
H 0.2752291058 1.6340989270 0.7227304682 0.0986824204 0.6778477611 -0.0218588270
B 1.0836775643 -3.8034959639 -0.3983820256 2.6556787846 -6.6325732386 1.8355095558
F 0.8181468531 -4.8475896427 -1.3470795799 0.2149670683 1.8879604797 1.0623837684
F 0.3660314148 -2.6038419415 -0.7924063020 11.3864903077 -22.0361154528 -20.8583322123
F 2.5089144007 -3.5279065267 -0.3192659183 -1.8767648955 0.5875349446 -0.5985394724
F 0.5892456302 -4.1778607252 0.9138379026 0.5857344749 0.9651929853 -2.1409004416
24
energy=-20642.3613292376 config_type=IL_pair name=EMIM-BF4 Properties=species:S:1:pos:R:3:forces:R:3
C -2.6689061558 0.9109381460 -0.1911808507 0.1649334286 0.5484404359 -2.9494915504
C -1.9236243650 -0.1007019310 0.6592514058 -2.3031687778 -0.2993683976 2.8747136756
N -0.5484746011 -0.2852532656 0.2374535440 -1.3075524456 0.1512566845 0.7259972192
C -0.1831863734 -1.2055452916 -0.6735878563 1.9307184337 -2.8273042999 -2.9534965480
C 1.1853795364 -1.1038300849 -0.8316450224 -1.1359109507 -3.5558037501 -2.9806216480
N 1.6343621340 -0.1269144630 -0.0182172867 1.5197896341 0.4004568809 -0.0670014057
C 3.0212586082 0.2855699483 0.1053509446 2.4594600912 0.1295723392 0.7813442870
C 0.5643241497 0.3626112412 0.6272190839 -0.3108458498 3.6152695571 3.2816934686
H -3.6799938769 0.5460608596 -0.4655515707 0.1353378030 0.4340274037 0.6227073214
H -2.6557365002 1.9239281466 0.2325199474 -0.3967392210 -0.0783074337 0.2474620614
H -2.1244442952 0.9792800844 -1.1754458997 -0.4998758053 0.0966606124 0.6335467082
H -2.4494741499 -1.0897965320 0.6841014857 0.5938684077 0.3596889122 -0.3522762771
H -1.9282788814 0.2546596136 1.7246516804 0.2052299323 0.0194805642 0.5394921798
H -0.8341913316 -1.9046482912 -1.1951523542 -0.4682035530 0.0067391390 0.1118267806
H 1.8130005714 -1.7084682564 -1.5013879535 0.1192833219 0.2724404406 0.2329754885
H 3.0730119325 1.3912365198 0.2026508018 0.1350748647 -0.2877094400 -0.0323158174
H 3.6013891005 -0.0804459240 -0.7696608071 -0.4111699588 0.3886321141 -0.0414474758
H 3.5045397359 -0.2152928542 0.9904871730 -0.4675364838 0.5324474796 -0.2303826967
H 0.5990447619 1.1666123347 1.3581435347 -0.1560427344 0.2782055330 0.4829739136
B -2.0858661617 0.7949608071 4.4207475755 -0.5446437654 -0.0954742843 0.4397058069
F -2.3767938412 2.0079384193 5.1545621305 0.4045240556 -1.1599790222 -0.5410110621
F -0.9133556414 1.0085721615 3.5972970768 -0.9049830869 -0.2609163548 -0.2604868587
F -3.2587006218 0.4912935774 3.6032747751 1.3728487090 0.2436788210 0.0501800112
F -1.8466692411 -0.3326220241 5.2864193997 -0.1196180979 1.0744158534 -0.6074332171
24
energy=-20642.2261253469 config_type=IL_pair name=EMIM-BF4 Properties=species:S:1:pos:R:3:forces:R:3
C -2.5846273589 -0.6725567080 0.4890405741 1.0032186794 -1.5209659663 1.3668826076
C -1.9086795525 -0.1055542859 -0.7615519762 -2.1353630977 -1.1962067521 -0.4006080241
N -0.5732271229 0.2771107533 -0.3658190718 0.1279280029 0.1463320960 -0.9444392458
C -0.1534986079 1.4636284170 0.1109135862 0.9898158579 4.5080869309 1.8171160071
C 1.2142393872 1.4082551379 0.3683927778 -1.8219556184 3.1802783556 0.8545276539
N 1.6035122215 0.1626185895 0.0352392924 1.6608138883 -1.0204624141 -0.1178819763
C 2.9461812808 -0.4173908291 0.1142757220 0.5535450678 -2.7848777028 0.0879083282
C 0.5186169533 -0.5025878279 -0.4033360326 0.0098424412 -4.8554033062 -1.4920372610
H -3.6705057322 -0.7114778986 0.3758064970 -0.2543578995 0.0772703649 0.2382002047
H -2.2182831133 -0.1045544587 1.3728130592 -0.7977782960 0.0164961447 -0.1538161320
H -2.1629266471 -1.7071329111 0.6211081117 -0.7602984835 0.6685842562 0.0805937203
H -2.5110014445 0.7379694594 -1.1430572536 0.5423019725 0.2208623933 -0.3917963589
H -1.8203986631 -0.9462251368 -1.4763581821 -0.0505252147 0.5465721785 -0.5420647997
H -0.7954077135 2.3305542015 0.2679675229 -0.3157044821 0.0139371657 -0.0388322557
H 1.8622935022 2.1842164087 0.7555025774 0.4476527279 0.2589172947 0.4417403850
H 3.7182994386 0.3554004298 0.1390568623 0.2096189025 0.2979429959 -0.0198710283
H 2.9973066973 -1.0997616532 1.0111556713 0.1465211647 0.8487904360 -0.2535390524
H 3.0318204674 -1.1138349731 -0.7629363993 0.4041475188 0.7410675134 0.2794231356
H 0.5062860077 -1.5386767147 -0.7482133386 0.1356702781 -0.1051613539 -0.0164324361
B 0.8453625592 1.1697087066 3.9251454610 -0.3093413919 0.0945216295 0.9274437350
F 0.2629946619 2.3002439122 4.6332593250 0.8276990815 -1.2802701808 -0.7984245638
F 1.2999369073 0.1433624744 4.8568357395 -0.4883380229 1.1523416113 -1.0075346514
F -0.2050284743 0.5875601686 3.0967174358 0.9408187517 0.3762861441 0.0442328212
F 1.9778588773 1.6048605253 3.1286968020 -1.0695203583 -0.3953562170 0.0451250547
24
energy=-20642.8058625081 config_type=IL_pair name=EMIM-BF4 Properties=species:S:1:pos:R:3:forces:R:3
C -2.6955206701 0.4227812154 0.7723577318 -1.7067111036 1.1986378607 1.5825241849
C -1.9211654134 -0.1529785194 -0.3854437005 -2.2292707906 -0.5252673070 -1.8264543901
N -0.5260002502 -0.3292655082 -0.0944976711 -0.7555062006 0.3681215180 -0.1240235995
C 0.0705299330 -1.4236062578 0.4317259562 1.8077017476 -3.1902091667 1.5578002425
C 1.4215313708 -1.1750392095 0.5480281177 -1.7317234216 -3.7593866638 1.1164421691
N 1.5958338672 0.0726663227 0.0836187951 2.7386667955 2.2701513880 -0.3281881343
C 2.8833763028 0.7470014530 0.0219420087 2.7176206970 1.1082441993 0.1220969135
C 0.4232964046 0.6047466708 -0.3122379581 -0.5260979089 1.9851253690 -1.8451733214
H -2.0751663791 0.6500061009 1.6550513398 0.0965903291 -0.0007190017 -0.1710627628
H -3.4737523331 -0.2909687384 1.0950103580 0.0340661049 0.2378109900 0.0152627329
H -3.1945453223 1.3641656366 0.4459737286 0.1536450524 -0.4670896378 0.3705405638
H -2.3471889829 -1.1417179321 -0.6647779318 0.3447299014 0.2136698871 -0.1744633115
H -2.0024419957 0.5120880958 -1.2745934595 0.5686829446 -0.3292400167 -0.3886061208
H -0.4081265766 -2.3524581729 0.7221661596 -0.6841198640 -0.1584274596 -0.0705508401
H 2.1626030688 -1.8644169377 0.9374030886 0.6233533803 0.1358772915 0.0201893597
H 3.4888955699 0.4228853537 -0.8654539497 -0.6120063541 0.3124206895 0.1735384034
H 2.7745837993 1.8550337012 0.0508189013 -0.2453088957 -0.4271528695 -0.3865233039
H 3.5017798900 0.4875572126 0.9103121346 -0.4126398445 -0.1612192815 -0.0720072245
H 0.3214777170 1.5915195134 -0.7174646018 -0.4094309172 1.0232086283 -0.4369386218
B -1.0280615793 0.1616206730 -3.7876715892 -0.7134818574 -0.9742005940 -1.7155154452
F -1.7879334797 1.1931010037 -4.4665839474 1.1056908948 -0.8593307303 0.7321410101
F -0.3585433561 0.7522888049 -2.6537417331 0.1610300488 0.3639297748 0.9008813025
F -1.9564708430 -0.8469658406 -3.3391876773 0.8605839619 0.8051626921 0.0128697801
F -0.0101411942 -0.4369870864 -4.6322276578 -1.1732652202 0.8487391609 0.9332031876
24
energy=-20643.0170501576 config_type=IL_pair name=EMIM-BF4 Properties=species:S:1:pos:R:3:forces:R:3
C -2.7054380263 -0.5131055108 -0.4206454792 -1.6434853150 -1.1367089571 -2.4008744707
C -1.8514736553 -0.2341336506 0.7738387269 -1.2970684924 -0.9967645489 2.0155517344
N -0.5100398709 0.2008972446 0.4072683454 -0.3977448493 -1.8627864943 0.4623908831
C -0.0565848190 1.4503949978 0.1934036168 -0.0876805656 5.1966705906 0.4559845345
C 1.2844897381 1.4114421662 -0.1343911393 -0.5090108534 2.7328540635 -0.2907045441
N 1.6244345441 0.0962279645 -0.1109747093 1.8189851774 -0.7756272352 -0.1980092491
C 2.9681884301 -0.4307377802 -0.3996154261 1.1657784450 -1.0666919039 0.0526614477
C 0.5425353275 -0.6364402461 0.2158175200 0.0234748282 -3.6236672197 0.3220619348
H -3.3064643065 0.3738278505 -0.7066919411 0.4383209082 -0.2429125712 -0.2478107362
H -2.1080456900 -0.9100247778 -1.2848602386 -0.4897315580 0.5276143394 0.5191324027
H -3.4283247521 -1.3138822993 -0.1532648036 0.1586700943 0.3477315228 -0.0974561932
H -1.7912914947 -1.1553964165 1.3898434519 0.5680421405 0.1762380617 -0.0754911314
H -2.3808627095 0.5060026701 1.4000939362 0.4066980371 1.2341645216 0.5548177655
H -0.6738233024 2.3420332779 0.2729516413 -0.4781451909 0.1793548622 0.0149099735
H 1.9489591272 2.2504226978 -0.3668375575 0.1263727599 -0.3082861725 -0.0148590814
H 3.1661327443 -1.2665532730 0.3081281192 0.0316695469 0.1316887287 -0.3624843945
H 3.7349393693 0.3489810392 -0.2428877322 -0.2254572316 0.1284255625 -0.0032512716
H 3.0091352083 -0.7857850800 -1.4487914757 0.0679579702 -0.0597759603 0.0920726060
H 0.5335341377 -1.7341708743 0.3076151448 -0.0600536584 0.2740776842 0.0435094371
B -1.5939379557 2.5359480055 3.0322976657 -1.1348194836 0.1335177186 1.5962940227
F -1.5516219041 3.8021528655 3.7260172766 0.1599602943 -1.4635920008 -0.7567513742
F -2.7420904198 2.5176660933 2.1600389502 1.1212300307 -0.5980562663 -0.0861067059
F -0.3493811961 2.3737936074 2.2962899422 -0.0215544142 -0.1324168185 -0.6099515990
F -1.7059026582 1.4092127043 3.9434194125 0.2686595091 1.2071472704 -0.9635836743
24
energy=-20642.1257207698 config_type=IL_pair name=EMIM-BF4 Properties=species:S:1:pos:R:3:forces:R:3
C -2.6652829584 0.8640407690 -0.2249677559 -1.7666393254 2.1883197526 -1.3499312229
C -1.9713908472 -0.4235674938 0.0862715302 -1.9965480812 -2.5995350951 0.6842677952
N -0.5461741806 -0.3716524748 -0.1069022960 -0.0758100100 -0.2465538967 -0.3420626154
C 0.1238170333 -0.6616044380 -1.2485510074 1.7374611609 -1.1190725717 -4.2648556246
C 1.4775024471 -0.4975157334 -1.0483356425 -1.2805623049 -0.8917323091 -2.6326867779
N 1.6127393967 -0.0990454510 0.2488783663 2.7128023233 0.3792033562 0.2509001819
C 2.8765885881 0.1970302989 0.9134360435 2.2590838587 0.3318244034 0.6031620604
C 0.3940522758 -0.0315613790 0.7880330014 -1.5871423060 1.3358021618 4.7051675099
H -1.9860508341 1.7326141749 -0.3027099979 0.0016567066 -0.2683361095 0.0364819411
H -3.4200270591 1.0995602003 0.5362641310 -0.0393437009 -0.0809099884 0.2423912858
H -3.2198063689 0.7585403096 -1.1890372005 0.4305612152 0.3147771553 0.4722595567
H -2.3463533504 -1.2374002082 -0.5877512830 0.2013042267 0.3517384422 0.4293777749
H -2.1713978254 -0.7558386740 1.1286313232 -0.0688157817 -0.0736540743 0.5607464632
H -0.3122076434 -0.9813343065 -2.2052680060 -0.4352863815 0.0617730817 0.3746979844
H 2.2653725952 -0.6538300423 -1.7735948339 0.6283809644 0.0320379979 -0.0315783451
H 2.9169249278 1.2444891592 1.2844194307 -0.3296414568 -0.3239735063 0.2616652467
H 3.0969279491 -0.5465269685 1.7100998540 -0.3228584153 0.3486796089 0.1436073702
H 3.7088209581 0.1082380420 0.1852117656 -0.3756158553 -0.0757009149 -0.1397106524
H 0.1659448962 0.2553642155 1.8058725773 -0.0248311963 0.1409266424 0.6357901472
B -4.1746861331 -1.4536250424 3.2268791943 -0.7831584222 0.1828983824 0.2107277856
F -4.4579636087 -2.4868119778 2.2678086865 0.3979700627 0.7983981113 0.6210858071
F -4.8214172681 -0.2171102980 2.8133267733 0.6017707128 -0.9593692839 0.1814663047
F -2.7559159460 -1.2222609880 3.3280042967 -0.5466889997 -0.1253198187 -0.5478016386
F -4.7184699943 -1.8268710486 4.5223537278 0.6656455748 0.2934551137 -1.1087997428
24
energy=-20601.9328697949 config_type=IL_pair name=EMIM-BF4 Properties=species:S:1:pos:R:3:forces:R:3
C -2.6360745979 0.4566497298 0.0726035404 1.2585790196 0.0484228899 0.5516027367
C -1.8092969820 -0.4469527485 -0.8310743718 12.8484229539 24.7119359203 1.5467204150
N -0.4909658964 -0.4931654861 -0.2248798203 -2.5364366611 2.9737614432 -3.4055563832
C -0.0001063072 -1.3438918827 0.6937305618 2.0427690302 -1.9423056724 3.0255167960
C 1.3084744790 -0.9597760572 0.9380382460 -0.9489985137 -2.5590106885 1.9123431980
N 1.5707773414 0.1109909915 0.1609044529 2.1966951881 1.2559815507 -0.5575507163
C 2.8092803494 0.8770960693 0.0574661667 1.0646480569 0.7537418689 -0.5246820041
C 0.4726266211 0.4097625933 -0.5604418141 -0.6617719445 1.3940439846 -1.5448877058
H -2.4784460696 0.0682294853 1.1040188692 -0.8063251488 0.4751370661 -0.1642959590
H -3.6802516149 0.4499581443 -0.2436863798 -0.4888935381 0.3038697893 0.2819197424
H -2.1788524551 1.4797238644 0.0298104803 -0.8436795351 -0.0642684905 0.2962515687
H -1.7665199636 -0.0154797514 -1.8351599136 0.7745884673 0.5566649670 -0.0700131309
H -2.2827687240 -1.4466923481 -0.8798752321 143.3262205114 186.3265778555 26.0144331390
H -0.5477847043 -2.1667247153 1.1418380519 -0.5888495730 -0.4919065756 -0.0944386432
H 2.0118196480 -1.4122575213 1.6171330667 0.6414140451 -0.1280144092 0.3669526647
H 2.5844601654 1.9572971884 0.1912636684 0.1754599778 -0.2350821794 0.3972679117
H 3.2245814557 0.7756895514 -0.9638042304 0.1872861978 -0.2171615219 0.0711374577
H 3.5060642483 0.4771656152 0.8066876428 0.2758648600 0.2835983262 0.0851773241
H 0.3829830068 1.2223772781 -1.2745729852 -0.1167521828 0.1946727146 -0.1347466987
B -2.2474154550 -3.2396948333 -1.0503561627 1.1645449074 -7.6131651283 -0.4979325935
F -1.0346676969 -3.4491579835 -1.8388621103 -2.4260627184 1.3761544178 1.1793318400
F -1.9954370567 -3.7645865895 0.2734815736 -0.3379640970 1.7460843778 -1.4467551686
F -3.3929869311 -3.9338571073 -1.6109101186 1.9732915549 2.0598138150 0.7605159917
F -2.5608123876 -1.8161841458 -0.9299131303 -158.1772420648 -211.2256097615 -28.0604805941
24
energy=-20642.3953964574 config_type=IL_pair name=EMIM-BF4 Properties=species:S:1:pos:R:3:forces:R:3
C 2.7047009163 0.4614598539 -0.3403630899 0.9908151684 0.6071019201 -0.1665999402
C 1.8918304904 -0.6090701712 0.3708968231 2.4642787722 -1.8616110011 0.5768910733
N 0.4743310356 -0.4908504042 0.0360765091 2.6615468285 -0.7500392631 0.9684798657
C -0.1788617270 -1.0828759891 -0.9810819953 -2.9942585381 -1.1517040485 -2.6284632954
C -1.5032956637 -0.6554279681 -0.8707880717 0.6430751874 -3.0704438372 -3.9557371485
N -1.6117555688 0.1672176929 0.1895160343 -1.1267187304 1.0478400261 1.1927661731
C -2.8281933107 0.8387271125 0.6630910062 -1.2752337509 0.5742958214 0.1915906428
C -0.3739490904 0.2524262878 0.7333672861 -0.4096747685 2.8717685852 3.5294559694
H 3.6017344839 0.6842418774 0.2675649923 -0.2118013202 0.0561468553 -0.2093924647
H 3.0424129254 0.0784504910 -1.3131176355 -0.0857001237 0.2661385172 -0.1337698806
H 2.0968885289 1.3870047632 -0.4820617889 0.1762642981 0.7915113994 -0.8386999620
H 2.2377613771 -1.6368857169 0.0606024510 -0.4767758259 0.6253751292 0.1643851795
H 2.0710508524 -0.5537859777 1.4650651672 -0.7201292157 0.1120678680 -0.0388571907
H 0.2422593925 -1.7556080682 -1.7326707278 0.3168245439 0.0246416770 0.1094237021
H -2.2947719698 -0.9621443834 -1.5552075873 -0.4889280631 0.2656898444 0.1459906599
H -2.9755804917 1.7949334792 0.1285227340 -0.1191341883 -0.0722353888 -0.3284357038
H -2.7683662221 1.0845557131 1.7259816749 0.3917248364 -0.1146834284 0.5286455771
H -3.6808308326 0.1492309369 0.5214669331 -0.0313558085 0.1895355191 -0.2064188920
H -0.1473651256 0.8484004709 1.6075558343 0.2996778458 0.2800611535 0.4348154134
B 1.0984976161 3.5751812060 -2.5544130746 -0.2295421686 -0.0998476007 -0.2241256111
F 2.1578880570 3.8474610519 -3.4916825545 -1.1368324529 -0.1722386562 0.7825048660
F 1.6878393088 2.8863970985 -1.4170808659 -0.3892207272 0.0583463048 -0.0104823221
F 0.0820375896 2.7029009876 -3.1283725498 0.9479826125 0.6791772004 0.4269710152
F 0.4312953039 4.7923641461 -2.1306372866 0.8099907256 -1.1684786985 -0.3178080224
24
energy=-20642.9666797199 config_type=IL_pair name=EMIM-BF4 Properties=species:S:1:pos:R:3:forces:R:3
C -2.6641622671 0.6509282002 0.0156219000 -0.7404589632 0.6329245185 -0.0390847145
C -1.9046439061 -0.6179399785 0.3863058698 -2.2419848644 -1.1168741161 0.7606727102
N -0.5344514130 -0.4773947606 -0.0596534431 0.5864476425 -0.2317086166 0.7642864475
C 0.0283193798 -0.8113833593 -1.2357032484 4.0425485817 -1.5453959793 -2.5211174589
C 1.3848756163 -0.4827316078 -1.1972194806 -1.3097573819 -1.4926987858 -3.0717971292
N 1.6145704300 0.0513749494 0.0219413155 0.6711340902 0.5380720738 0.7129799462
C 2.8834557753 0.5406719549 0.5189554959 1.5361113644 1.4604728303 2.2741576273
C 0.4477297164 0.0458844138 0.6913769344 -0.1011526170 1.7632421456 4.3542054117
H -2.0456311250 1.5206635403 0.3394646690 -0.7044731964 -0.1771583076 -0.3788606147
H -2.8278003449 0.6106611095 -1.0782221213 0.1999654321 0.4196368029 0.0145055955
H -3.6513620752 0.6377970567 0.5234528843 0.3702613154 0.2368458383 -0.1285317925
H -1.9024973604 -0.7769951720 1.4774367495 0.1727590609 -0.0637167363 0.1646681762
H -2.3753826599 -1.5048481144 -0.0959838762 0.3735422379 0.1840995841 -0.0197227501
H -0.4950600793 -1.2627582964 -2.0732278487 -2.6367052117 -0.0858701443 -1.0462427134
H 2.1243434044 -0.6259111235 -1.9932984845 0.0786996812 0.1261366905 0.2072517702
H 3.3657642241 1.1944425076 -0.2249520814 0.1726243503 -0.2605924247 -0.2880875864
H 2.6838485562 1.1800164377 1.4216548265 0.0892923910 -0.4378043879 -0.5514389867
H 3.5400121442 -0.2918160056 0.8540269933 -0.0358043495 0.0974977450 -0.4256481266
H 0.3280719842 0.4193382478 1.7080229461 -0.0289529944 0.1348418783 0.2252486921
B -1.4020215829 -0.4861897687 -3.8665826950 -0.7037230116 1.0130749914 -2.8702983998
F -1.6993346682 -1.4692645651 -4.8765173941 0.3924070874 0.7287305293 1.3013401779
F -2.0773741321 0.7394338274 -4.1913278636 0.5729710473 -1.0361210855 0.6104481217
F 0.0182556475 -0.2534823537 -3.8034413693 -0.7581204372 -0.3745863588 0.3982730726
F -1.8621096896 -0.9447266216 -2.5688224159 0.0021127188 -0.5235230734 -0.4591085514
24
energy=-20642.3667635142 config_type=IL_pair name=EMIM-BF4 Properties=species:S:1:pos:R:3:forces:R:3
C -2.5952366912 -0.4676358769 -1.0264631770 -1.5394096075 -0.9504151801 -0.8462948595
C -1.9780816442 -0.1545059035 0.3176622693 -1.0500166240 -1.0508703350 0.2421601637
N -0.5718588683 0.1682998361 0.1896447842 -0.4641468835 -0.4522694312 0.1288958436
C -0.0879540160 1.4136364000 -0.0095848670 2.1998979185 3.9129871315 -0.6832576401
C 1.2954524288 1.3542388367 -0.0839701405 -2.1693494048 2.8401046453 -0.2870679400
N 1.6091942713 0.0517977150 0.0755000235 2.7704283641 -0.9882629207 0.1197300785
C 2.9674793818 -0.4732955267 0.0663229303 1.6736381775 -1.5015535781 -0.3060883684
C 0.4900605483 -0.6772075784 0.2419831927 -1.0420552364 -3.4062841754 0.5016411294
H -2.1027100708 -1.3295108167 -1.4945759279 0.0830053279 -0.0800298116 -0.1087290201
H -2.5717982076 0.3739895607 -1.7159964776 0.0292964135 0.4414573816 -0.2621880456
H -3.6603098985 -0.7487800866 -0.8343428780 0.5893788331 0.2257431505 -0.2391644837
H -2.4866352195 0.6847308038 0.7980622028 -0.2762398335 0.2641238468 0.6382549929
H -2.0673561877 -1.0476814945 0.9639630402 -0.3056031862 0.3179940689 0.6814518981
H -0.6229950487 2.3519408334 -0.1060310174 -0.9356522268 0.0141675812 0.1071010485
H 1.9844366299 2.1745947073 -0.2373014540 0.5755767440 0.1306488013 -0.0323544213
H 3.1888301405 -0.9663366096 -0.9060367076 0.0103163628 0.3343590240 0.0314607563
H 3.7155438476 0.3021468163 0.2841797172 -0.1514429254 0.3463121971 -0.1369943573
H 3.0681549827 -1.2513527117 0.8313721900 -0.0830682055 -0.2337834522 0.3984130826
H 0.4257836217 -1.7590689045 0.3938198463 0.0893894313 -0.0050509274 0.0391333647
B -3.0987938450 0.5522423828 3.4617293745 -0.2801791723 0.7101127284 1.0378985088
F -3.3341033311 -0.4478487760 2.4490242276 0.0151598011 0.2623697945 0.4888907097
F -3.8537719893 1.7594291184 3.1347157278 1.0670944093 -1.3726211358 0.1713171750
F -1.6805612748 0.8249305577 3.5487661021 -1.3083970632 -0.1679208842 -0.3157241917
F -3.5781786060 0.0424768405 4.7421249112 0.5108228734 0.4064248131 -1.3791618740
24
energy=-20642.6106338017 config_type=IL_pair name=EMIM-BF4 Properties=species:S:1:pos:R:3:forces:R:3
C 2.6676794200 -0.4142095185 0.5025519433 0.7726253155 -1.3861005854 0.3925814738
C 1.9388909066 0.5435830213 -0.4254909628 2.8801359259 2.5991321953 0.7702815747
N 0.5429913192 0.2108669029 -0.3793415458 -0.4593931168 -0.0928938823 -1.2670309749
C -0.0540232978 -0.6835024760 -1.2081475961 -1.7733748067 -2.5345728533 -2.2834329877
C -1.3946531446 -0.7689892497 -0.8997432022 1.5908770566 -2.2972591890 -3.0227420815
N -1.6065496591 0.0797874283 0.1219079113 -0.5267729679 0.7892269767 1.5675805065
C -2.8966261588 0.2849483328 0.7429780928 -2.0636051777 2.3915175462 0.1350360478
C -0.4199480012 0.6701480585 0.4296625435 -0.3040667435 2.9239012913 3.4428975738
H 2.2451856239 -0.2892302603 1.5179157505 0.4941579739 -0.0921876328 -0.0499820224
H 2.4473478011 -1.4571424870 0.1465129008 0.5112117731 0.2324465323 0.0399769700
H 3.7674349121 -0.2078385264 0.4655701512 -0.7737566076 -0.2736817185 0.2263098554
H 2.0420190208 1.5871022625 -0.0116453891 -0.1140306139 -0.5227926080 -0.5169183828
H 2.3781680189 0.5219209292 -1.4455872800 -0.6305373209 -0.3106427631 -0.1600790144
H 0.4471560053 -1.2435200698 -1.9913185563 1.7518761824 -0.4636209339 -0.9850869263
H -2.1115717726 -1.4076126939 -1.4038383810 -0.6212276410 -0.0586533683 0.1230607677
H -3.5668398729 0.7022812233 -0.0583982145 0.0107410359 -0.7056775256 0.5044745494
H -2.8460356310 1.1017463931 1.4969540597 0.2673889899 -0.5447895377 0.0704842307
H -3.2858839638 -0.6384597781 1.1750181003 -0.2510484633 -0.4601228212 0.1809232831
H -0.2947415263 1.4081205076 1.2244396744 0.0550052488 0.1249393174 0.0863733060
B 2.8232729288 -2.8198374620 -2.5728398568 0.4884166458 -0.2269743522 -0.0840334027
F 2.6364366630 -3.9017748678 -3.5037623685 -0.0119446687 0.8808832636 0.5568647204
F 2.1988444984 -1.6011095535 -3.0450900024 -0.4650622623 -0.5292414283 0.6720800631
F 4.2431674920 -2.5790380342 -2.4314028963 -1.2008934612 -0.1678548025 0.0768550274
F 2.2236336249 -3.1944636293 -1.3107664755 0.3765493034 0.7286936519 -0.4735063088
24
energy=-20626.4113254237 config_type=IL_pair name=EMIM-BF4 Properties=species:S:1:pos:R:3:forces:R:3
C -2.6158166357 0.8777938595 0.0061859859 12.1189144694 8.8637367557 11.7573513105
C -1.8872332844 -0.2889109374 -0.6661123725 10.2916315066 -2.2206098898 -0.9900609331
N -0.5432257218 -0.4269391513 -0.1242893508 0.8506696987 0.1092894628 -0.6779327365
C -0.1412930106 -1.1653878944 0.9314611691 2.2229993080 -0.9891010267 2.0842363589
C 1.2278826909 -0.9711184135 1.0541554436 -1.5693859504 -2.6537273245 3.0069624297
N 1.5928125353 -0.1308166710 0.0760497632 2.7258882959 1.5660887122 -1.6625561328
C 2.9574002016 0.3556667594 -0.1770402333 1.0496288464 1.5329796957 0.4357502760
C 0.5128616225 0.2207868462 -0.6678806963 -0.2798138853 -0.1794762468 0.2227579399
H -3.0913995385 1.5539664544 -0.7273015154 2.5384315131 3.4667543441 4.0784559080
H -3.3397197008 0.5508881823 0.7645424716 2.7652419393 1.5153136126 1.5940350887
H -1.8347076459 1.4801059212 0.5317923999 0.3468291981 0.2269217192 0.7327834678
H -1.8524275675 -0.0760638055 -1.7419131008 5.6966671972 -2.4543113874 0.1438572980
H -2.4868821454 -1.1838663531 -0.4083581402 2.1289564660 -0.2967524413 -0.6712919103
H -0.7942065186 -1.7734596384 1.5337005538 -0.6292691060 -0.3642757898 0.3018048199
H 1.8714687408 -1.4192879030 1.8034285880 0.6542334732 0.0816990383 0.0567424913
H 3.5993597653 -0.3851646438 -0.6571230432 0.1828297837 -0.6519147744 -0.1498428556
H 3.3817703040 0.6529784268 0.8079698530 0.1294761877 -0.1016327722 -0.3834039147
H 2.9190290059 1.2522713967 -0.8338126394 -0.1371011770 -0.2653894876 0.2368500511
H 0.5243269031 0.8765575651 -1.5054551362 -0.1330888593 0.8340516188 -1.1155922610
B -4.0145311708 0.1309308757 -0.7755944131 -10.7145683019 -2.5802864115 -3.7137077327
F -4.5329393956 1.2992320440 -0.0821374100 -5.9340156237 -0.9166855626 -1.4480914824
F -2.9225161229 0.5483870546 -1.6295712971 -14.6187838406 0.8288099082 -17.3882158001
F -5.0825569251 -0.4248936748 -1.5652538408 1.8171588188 0.5615641738 0.8969566047
F -3.5277732497 -0.8809498591 0.1220893134 -11.5049213910 -5.9084547010 2.6570997386
24
energy=-20635.5365506003 config_type=IL_pair name=EMIM-BF4 Properties=species:S:1:pos:R:3:forces:R:3
C -2.6538308587 0.4228512588 0.4674167240 -1.7180171854 -0.0154833564 2.0040706641
C -1.8934290208 0.2987069351 -0.8122271834 -1.5937693263 0.8368659425 -2.6886041940
N -0.5201692592 -0.0752547744 -0.5295598938 -1.2569658426 -0.1929842751 -0.8488899502
C -0.1171632994 -1.3736084111 -0.4511236768 1.5745976871 -2.9398613376 0.3758791805
C 1.2395077035 -1.3525006692 -0.1703000876 -2.4916110139 -3.3992302632 -0.3748690482
N 1.6118878540 -0.0658025567 -0.0883246751 1.9630485496 1.7387721620 0.4716419099
C 2.9412406917 0.4040655115 0.1885417551 1.4175779114 -15.3320154470 -5.7455570223
C 0.5341260367 0.7381716165 -0.3082824059 0.6183314540 1.2877048073 0.1696875874
H -3.5863518969 1.0158258339 0.3391145261 0.3089370091 -0.4136143941 -0.0738187199
H -2.9139151374 -0.6162807665 0.7824339992 0.0264475971 0.7916378062 0.3691346382
H -2.0492069364 0.9325841254 1.2389429169 -0.1115461034 -0.2300669888 -0.0102834295
H -1.9004018765 1.2365170351 -1.4171864385 0.1496353044 -0.2091283822 0.2910010825
H -2.3778912644 -0.4959940493 -1.4397352425 0.5891329352 0.3895738762 0.1640851601
H -0.7323867523 -2.2608358097 -0.5818181722 -0.5908085020 0.1229188228 -0.1539936384
H 1.9184263289 -2.1821327831 -0.0329753665 0.4883153867 -0.3179389156 0.0948935390
H 3.6132936405 0.0116566840 -0.6033216192 -0.5185562062 -0.5137214729 0.0230093009
H 3.3708305120 0.0385101834 1.1393941925 -1.2047756222 -0.3853121915 0.4122831158
H 2.9919180083 1.5027563178 0.2142381360 -2.0479020254 -18.7085860810 -13.1325399410
H 0.5235155264 1.8207643187 -0.3063334370 0.0543897908 0.5684554433 -0.0022684248
B 4.1017678639 1.8861467029 1.5632127175 4.4777176806 1.3821538982 3.5239613473
F 5.2547716572 1.3186581678 0.8593100377 -2.3554286432 1.2758813237 1.1229417864
F 4.4445861909 3.1294863669 2.2309621878 -0.8862149596 -2.2728966976 -1.3239175009
F 3.0342131428 2.1778074397 0.6075421363 2.2107014561 35.1967609252 15.8933641943
F 3.5566356555 0.9025238089 2.4968257641 0.9051195708 1.3479216458 -0.5672133789
24
energy=-20642.3624881966 config_type=IL_pair name=EMIM-BF4 Properties=species:S:1:pos:R:3:forces:R:3
C -2.6307507813 0.7480408415 -0.0874455591 -2.5177194055 1.3937511837 0.3123964155
C -1.9277907913 -0.5590348193 0.2518056610 -1.4409497985 -0.1276199004 1.2053034107
N -0.5462250412 -0.4201331178 -0.1445646920 0.3663596183 -0.8870458986 0.1967757741
C -0.0759899540 -0.7489556973 -1.3748021859 1.5228305687 -0.9803395245 -3.6942664738
C 1.2864548179 -0.4915039904 -1.4148415814 -1.8994281650 -1.7143060250 -3.7954442217
N 1.6257280094 -0.0074491919 -0.2017976245 1.0832272131 0.6728455434 0.3913568279
C 2.9760311062 0.3874725370 0.1655641363 1.7929472167 -0.2074440438 1.0812290731
C 0.5101154367 0.0336313498 0.5645730134 -0.0795084651 1.5458467863 3.4826756503
H -3.6671262206 0.5380901038 -0.4837622878 1.0050619479 0.2628361310 0.2812082107
H -2.0718589475 1.3436098318 -0.8302194145 -0.1301688467 -0.1360382956 0.1232231737
H -2.7632376524 1.3340576184 0.8515726682 0.1759811768 0.0263156995 -0.6473982529
H -1.9751622046 -0.7687105240 1.3388953368 0.0497933474 -0.1129540260 -0.0917434362
H -2.3824443283 -1.3841755838 -0.2997159200 0.0795744472 -0.6277053026 -0.2537875939
H -0.6919583047 -1.1488684277 -2.1823815104 -0.2432475965 -0.0496176232 0.0748164868
H 1.9457343212 -0.6572956889 -2.2798718817 0.1872269607 0.1885204974 0.4588747756
H 3.4710217974 -0.5126176967 0.6229883813 0.0160871158 0.7333017397 -0.1172649229
H 2.8985795117 1.2081083891 0.8919159979 0.2352531057 0.0989550858 0.3248266673
H 3.5417116404 0.7259801533 -0.7238205225 -0.2059730157 -0.1165363617 0.0191909070
H 0.4771675852 0.3797539130 1.5916975358 0.1833439280 -0.0857703941 1.4767384284
B 1.2708077932 0.6205611921 4.7595604343 0.2429671070 0.1566638808 0.6087070257
F 0.9980825527 -0.3054098829 3.6830746454 -0.0949645921 0.6264125219 -0.1136758769
F 0.5477855122 1.8516697702 4.5475716569 0.6885566938 -1.1817020802 0.0976437188
F 2.7007043866 0.8695519720 4.8143046289 -1.2659637417 -0.0955810116 -0.1752375711
F 0.8749096862 -0.0062586449 6.0148183276 0.2476920006 0.6196290237 -1.2403093916
