45
energy=-60076.9132302502 config_type=IL_pair name=Pyr14-NTf2 Properties=species:S:1:pos:R:3:forces:R:3
C 3.0548441106 -1.4180993945 1.4939771371 1.1668365225 0.0389784631 -0.3009799825
C 1.7700955909 -1.4368488214 0.6487022520 0.7402687589 -3.3743932614 -0.0839528896
C 1.7904718730 -0.2046265154 -0.1718829294 3.2066038491 2.5567230210 0.5177810573
C 0.6626944997 0.0367924596 -1.0880851112 3.2590208300 0.5394707661 -5.8929009404
N -0.6423367429 0.1653796204 -0.5335942878 -0.7313194815 -1.4462527141 0.7402932442
C -1.1556931705 -1.1640700722 -0.2701318572 -3.4468261950 -5.1077630259 0.3528496286
C -0.6740464152 0.9025895670 0.7086171670 -2.1507169647 0.9468709407 2.8104295388
C -2.1528748090 1.3178294849 0.7614298814 0.2109733751 0.4659995096 0.5546740322
C -2.2537383351 1.9236158337 -0.6368445473 0.0656792479 1.8351883757 0.7436321106
C -1.5511390336 0.8637255395 -1.4358703399 -3.5838810066 0.6314627412 -4.8965467187
H 3.0061966805 -2.0870621470 2.3562155937 -0.0122542530 -0.1357768449 0.2403257120
H 3.2894664638 -0.3819894942 1.8147746372 -0.1499714488 -0.4294063710 0.2033161539
H 3.8808364553 -1.7460480244 0.8286888006 -0.0509392857 0.1023866871 0.4822163001
H 1.8214756521 -2.3190842674 -0.0569048635 -0.1056921345 0.5425079920 0.7214303593
H 0.9090818879 -1.6284806457 1.2749313949 -0.7439859592 0.4872325016 0.4821211621
H 2.0251194363 0.6694935081 0.4990886938 -0.7008518233 -0.2812134453 -0.5872152297
H 2.7172098485 -0.2704211532 -0.8188604004 -0.9468511263 0.0970180274 0.3759758244
H 0.8159192415 0.9506660481 -1.7285286192 0.3771215879 -0.4151961276 0.8591311910
H 0.6033510070 -0.7952918141 -1.8431534438 0.0584566135 0.4764433199 0.4302319719
H -2.1310110933 -1.2715460111 -0.8333258126 1.0098546817 -0.3400782487 0.7044047513
H -0.4619349273 -1.9396560556 -0.6579643407 -0.3105267916 0.1759469164 0.5085150968
H -1.4071268764 -1.3013353922 0.8151561036 0.5619581373 -0.1048578462 -0.8388621423
H -0.1253072286 1.8742982901 0.6051202325 0.7734417049 0.8924996299 1.1205236075
H -0.3923435536 0.3285449344 1.5876003498 0.6321256037 -0.4548063542 -0.0191325441
H -2.2775121390 2.1268467392 1.4796049781 -0.3817824827 -0.0987874986 0.7953863363
H -2.8228147895 0.4581182722 0.9023794860 -0.3830083401 0.2513120448 0.3301027555
H -3.2881464345 2.1217888163 -0.9427864918 0.0388647004 0.1591319322 -0.4130934406
H -1.6131153066 2.8455963354 -0.6127325830 -0.8785867761 -0.2965173826 -0.2498728765
H -1.0543600091 1.2316584178 -2.3511517021 0.3488129283 0.0421322096 0.2594567194
H -2.3432618827 0.1476159416 -1.7944693776 0.8725500727 0.4371938321 0.0969917289
O 0.4550485055 2.9191583270 1.1090984489 -0.4502592135 -4.2830418497 -4.2767041102
S 0.6359679967 4.1832916367 1.8958354799 5.6734399621 -0.0969086225 0.0844434553
O 0.8886806698 3.9011437025 3.3434142572 0.3419961166 -1.0667569554 7.2816737804
N 1.9818209685 5.0438892578 1.1960105713 -1.5631801601 5.4590467395 -2.0840578923
S 3.4114952538 4.1199089017 1.4418370657 -3.6855428213 -0.9661536720 -1.6625602479
O 3.9590511349 3.7938028597 0.0811552623 3.2663450719 -0.5230566205 -6.6505813029
O 3.1295390347 2.8417956522 2.1624037953 -1.2267610957 -6.5546919614 4.6672084465
C 4.5619048661 5.1273832781 2.3652304240 2.9100482460 3.2607507065 1.8263724123
F 5.7204279879 4.4108184708 2.5777655164 1.4044205274 -0.2984151841 0.2136463832
F 4.0185335528 5.4636139624 3.5709703461 -0.4324249667 0.8599172392 1.8263293774
F 4.7904830565 6.2596992643 1.5894870358 0.7460101743 0.9816859419 -0.0315683453
C -0.7720032211 5.2565372623 1.7386027473 -3.4309256541 4.1548932298 -0.9586538839
F -1.0012030142 5.5328773418 0.4093313935 -0.5296544267 0.5884459690 -1.5189895257
F -1.9159201254 4.6923624062 2.2505491623 -1.3279082469 -0.4594032695 0.8246842873
F -0.4320939448 6.4269576396 2.4100346809 -0.4366898343 0.7571707114 0.4198473105
45
energy=-60061.5778019888 config_type=IL_pair name=Pyr14-NTf2 Properties=species:S:1:pos:R:3:forces:R:3
C 4.0855277099 0.6316971850 -0.1039452080 2.1035000460 -0.7214038825 -0.6636800635
C 2.8774094330 -0.2584428199 -0.1668129725 0.4937915901 -1.1238762487 0.5448922038
C 1.5939459827 0.4932913720 0.1407625981 0.8437846674 1.4100816585 0.1230392037
C 0.5052038639 -0.5242544608 0.0365789944 4.0870009906 -2.3417697897 0.6234640974
N -0.8241145818 -0.0689894830 0.2837655117 -0.2609584654 -0.5487292001 0.6401449344
C -0.9379227970 0.6517769017 1.5167364820 0.3411240077 3.1399549348 3.9894049277
C -1.4204216167 0.6513147605 -0.8044049046 -1.8060718911 5.4188990436 -3.2796148274
C -2.9046014859 0.4704106974 -0.5455148856 -2.0441381135 1.3934878594 -1.0738579975
C -2.9906088074 -0.9721811247 -0.1826095073 -9.4367558520 -1.4873946457 3.3843831694
C -1.6277757217 -1.2988487555 0.3250529589 -1.4760056920 -2.8276505910 26.5899448542
H 4.9424491793 -0.0051132244 -0.4452395124 -0.2855626173 0.6379505063 0.2540436605
H 4.0289527181 1.4860226210 -0.7977566852 -0.0704694872 0.1994613514 0.4489679819
H 4.2862148588 0.8914241907 0.9368379409 0.1911200376 0.8178072179 0.1747249198
H 2.7802466487 -0.7374145998 -1.1687592961 -0.8049307524 0.6030693689 -0.3263192156
H 3.0296630565 -1.0903163198 0.5510186808 -0.2733569776 0.3183011211 0.0431303227
H 1.6813250630 0.9540362103 1.1420451435 -0.3066520465 0.1142902637 -0.1719595939
H 1.4712533474 1.2672427962 -0.6336058756 -0.1248609349 0.2524253831 0.1784317013
H 0.6967853761 -1.3248990375 0.8025542099 -0.0781304696 0.4532085818 -0.6382638801
H 0.5639573533 -0.9722650280 -0.9776918795 0.7678697810 -0.0824856917 -0.6470667685
H -0.5019908057 1.6656450928 1.3673593427 -0.3119103552 -0.2654042029 0.1664778556
H -0.3259329608 0.1588912330 2.2897949416 -0.1919986752 -0.2071567156 -0.0008406462
H -1.9817783053 0.7401131949 1.8688779460 0.1873802544 -0.1437345858 -0.2105322031
H -1.2483869096 1.7476259137 -0.7488994178 0.8965884271 -0.4504772911 -0.1804055601
H -1.1589114564 0.2316237907 -1.7872709681 0.6619230031 0.4957683473 -0.0725462849
H -3.2579130910 1.1307586664 0.2543321921 -0.0133606073 0.1760303350 0.0326308956
H -3.5225071589 0.6514672488 -1.4443126830 0.2809512787 0.4281719731 0.1362559460
H -3.7981450431 -1.2124656889 0.5400247707 -0.0945658823 0.6724482622 0.1631656305
H -3.2388785580 -1.5608931118 -1.1140424645 -1.9556738624 0.3862487726 1.6048193442
H -1.1888790057 -2.0801600792 -0.3297058002 4.4662776713 -7.2421327112 11.4052172217
H -1.6141662856 -1.7170981416 1.3512902832 -0.5773745140 2.0246418216 2.1680064571
O 1.7291098309 -3.1298031914 -3.9055927150 -0.7607915572 -2.6861372833 -7.2335003357
S 2.0598549701 -2.5884839582 -2.5576614041 -3.6369083298 -1.8082900275 -0.1306776878
O 1.7955690516 -1.1049807653 -2.4500161501 -1.1400964937 7.5844566367 0.9558898986
N 1.1193093842 -3.3664466427 -1.3564557865 1.5458973165 -0.8666282382 6.0574612649
S -0.4612344688 -3.6591914601 -1.9538693028 5.0585098901 -3.8858043083 -0.7589742553
O -1.2599530396 -4.5169904466 -1.0149279905 -3.8462559370 -3.0430236532 5.5378409046
O -0.3322818874 -4.3303479146 -3.3067583483 -0.3159690527 -2.1811866979 -5.8395195313
C -1.3710521338 -2.1586659925 -2.2221623440 -2.0288919212 2.6425547308 -8.6995045731
F -0.6862917988 -1.4038166878 -3.1392934375 0.7153903510 1.6856966119 -1.1441378648
F -2.5873263427 -2.4929626199 -2.7733202515 -1.7510850000 -0.0006364921 -0.2275392424
F -1.5882493201 -1.4930790924 -1.0378099088 3.6018107462 2.8852655688 -35.7939071195
C 3.8090832353 -2.8036887130 -2.2669488497 5.8095461321 -1.9790358834 1.7772095148
F 4.5534880048 -2.1701124843 -3.2446482433 0.4238996105 0.8274091021 -0.5532239247
F 4.1690850957 -4.1445021667 -2.2996108244 0.1629529588 -1.0473680665 -0.1520364294
F 4.1351134410 -2.3460711964 -1.0030275464 0.9448705497 0.3722552944 0.7918057552
45
energy=-60068.6634296205 config_type=IL_pair name=Pyr14-NTf2 Properties=species:S:1:pos:R:3:forces:R:3
C 3.8464811073 0.3350487228 0.5333764527 2.7205661567 2.0825187753 0.4003240074
C 2.8566343080 -0.2777987487 -0.4260394540 -0.2172810967 -0.2915679722 -0.9144547459
C 1.4731555564 -0.0561486888 0.1861957538 1.8536878289 -0.3008833536 0.3491776301
C 0.3959186536 -0.6302889845 -0.6900423208 3.1854472422 0.0871959142 -2.0694686615
N -0.9101128241 -0.4023283636 -0.0785394892 0.6830515876 -2.2902273464 -0.7959915971
C -1.2735296684 -1.6138705256 0.6124604267 3.7897675403 -9.9176259834 -10.5895460506
C -0.9140336684 0.7666165347 0.7688785528 -1.7740929749 4.4074897023 1.1670572175
C -2.4152109426 1.0787237437 0.8549120494 -0.1613246182 3.9132801406 -0.0444429306
C -2.7086086164 1.0685283835 -0.6409023914 0.1070439504 2.1904226596 -0.0498407815
C -1.9298443121 -0.1521795166 -1.0759629360 -3.2815473919 0.0934415439 -4.8388249147
H 4.4028973801 1.1801146732 0.0407534488 -0.3604024511 -0.7034287732 0.2790624053
H 3.3717541406 0.8040775551 1.4186172563 0.1667076809 -0.6557827698 -0.1438824285
H 4.6211364807 -0.3898953358 0.8304033620 -0.1884970189 0.0868703792 0.3681282480
H 3.0853866185 -1.3472348949 -0.5735426255 -0.2131378410 0.0806679619 -0.2208344524
H 2.9150899255 0.2619797178 -1.3829621001 0.0118089110 -0.3632444184 -0.3247807074
H 1.4176290082 1.0328358959 0.3352387753 -0.4268495050 -0.3076875185 0.0140519773
H 1.4923597468 -0.5879925291 1.1654806695 -0.6599979371 0.2173663714 -0.4012873469
H 0.4278200671 -0.1534702955 -1.6796870350 0.0520883677 0.0634436909 -0.2856518933
H 0.5897559518 -1.7091845401 -0.7888589099 -0.3815354195 -0.0200501286 -0.3037663998
H -1.8808094147 -2.2753531786 -0.0716264089 0.5331146409 0.8992457025 -0.5589566042
H -0.3977273604 -2.2353603930 0.8874185336 -0.6785519255 -0.4305532185 -1.5636211774
H -1.9245572753 -1.4522137275 1.4899236239 14.9557041011 -9.9127002277 -10.4541494078
H -0.4384993839 0.6372343003 1.7324205197 0.6716441981 -0.0686902564 0.1575289494
H -0.5304404669 1.6069202120 0.1437283874 0.5688206695 -0.3970229473 0.7970971329
H -2.5295268835 2.1286645390 1.2423198206 -0.1102349788 -0.9417493237 0.0023046299
H -2.9728463088 0.3335139379 1.4206959830 0.3077765660 -0.3803110410 -0.2674576698
H -2.2259266997 1.9983028608 -1.0479660701 -0.7583828273 -0.6553861698 -0.1689676846
H -3.7692916960 1.0486678931 -0.8736878875 -0.4787574428 -0.1258406553 -0.4129447767
H -1.4268855768 -0.0022900473 -2.0489202191 -0.2796814032 -0.0759181442 -0.0373113438
H -2.6481678464 -0.9956192002 -1.1782280296 0.7248822985 0.0631736152 0.1205302063
O 0.3907331900 -1.9224643198 4.4576699121 1.7169869362 -4.1343944742 4.8160225301
S 0.0733265199 -0.8100144548 3.4854105587 -2.5238734366 -1.9203442042 4.0510782272
O -0.0910174812 -1.4062389582 2.1116079408 2.3486178251 -0.9535060798 -3.6372430019
N -1.3333570473 0.0611509198 3.9780923861 -0.7538292079 6.1678336081 2.5446496901
S -2.6998301269 -0.8490971356 3.4464307099 4.2850138363 -0.0059376653 4.1553052293
O -2.7588041769 -2.1450327517 4.1671826187 -1.0879078839 -6.8620566759 4.2142276979
O -2.4803661890 -1.1082296907 1.9648433152 -23.0266996273 10.9838948132 12.0317280035
C -4.2085586300 0.0561993272 3.6118484613 -4.8400534803 3.8793395245 0.4776111374
F -4.1728884649 1.2171699723 2.8653206001 -0.2985083262 1.2021566860 -0.4890537274
F -4.4687823918 0.3917871672 4.9119641460 -0.5372619497 0.2831153840 1.6470411391
F -5.2205798214 -0.7400221285 3.1096765925 -0.9249393796 -0.7562238199 -0.2648003623
C 1.4921175302 0.2757270172 3.3966123979 3.1155575444 4.3278998799 -0.0684899453
F 1.7758963745 0.8608079482 4.6015108994 0.9116618330 0.6318462579 0.9894695151
F 1.2296446670 1.2539424532 2.4367957943 0.1298673817 1.4629419505 0.0893904679
F 2.5324079754 -0.4807609185 2.8934460019 1.1230494758 -0.6744691602 0.2332406393
45
energy=-60038.0397729447 config_type=IL_pair name=Pyr14-NTf2 Properties=species:S:1:pos:R:3:forces:R:3
C 3.8966000229 -0.0579003346 -0.3905711633 2.4959678278 -0.7877722914 1.6249764370
C 2.5183105990 0.3276022728 -0.7991588418 -1.6336904683 0.3571415607 -1.8054402552
C 1.4481795437 -0.3781905410 0.0434713005 3.3266388194 0.0426517934 2.6341698727
C 0.0978230120 0.0475839315 -0.4122788252 2.9371183500 3.6685128701 -3.4046856641
N -1.0163206271 -0.4999238605 0.2488579284 -1.0134605485 1.3510534354 1.5424526616
C -1.1084544155 -1.9368981600 0.0722572762 -7.3134603236 21.8493125015 10.1094977129
C -1.2520962260 -0.0773878652 1.5975528827 -0.7811474944 1.1650425665 4.6686153964
C -1.5529022125 1.3994731195 1.4903131836 -0.5853761776 1.5910259094 0.7553637834
C -2.2897841353 1.4644287419 0.1469955106 -0.7321209021 2.1599036822 -0.9765266336
C -2.2110252319 0.0543841129 -0.3944596561 -3.7185840939 0.4088570310 -2.0332152147
H 4.5490932199 0.8212643474 -0.4271575454 0.3020833099 0.0813976924 0.0054342727
H 3.8851557158 -0.4128955520 0.6798239329 0.3416328663 0.1161337649 -1.0366453812
H 4.3564100750 -0.8237153002 -1.0519655201 -0.3257784837 0.0953083457 0.4840287475
H 2.3974102173 1.4195870947 -0.7323442280 -0.1630382904 0.0782480932 -0.1746811782
H 2.3668579085 -0.0011868615 -1.8510623939 -0.0857218385 0.5956354906 0.1630634502
H 1.6171241517 -1.4659655568 -0.1134369281 0.2650512957 1.6319061297 1.2297376377
H 1.6905487842 -0.1596002441 1.0781384323 -0.4569221244 0.5808801485 0.8780155277
H 0.0013961208 -0.2476372561 -1.4894872145 -0.0676131161 0.4489453292 0.7181654769
H 0.0436873945 1.1555437587 -0.3989084203 0.0100909921 -0.2186301970 0.1156265599
H -1.8917736780 -2.3386729964 0.7371100472 -1.4595896303 6.7618145991 5.4660590460
H -0.1488693112 -2.4540533255 0.1489019689 14.3094059767 14.4877234407 2.0181658169
H -1.4752152826 -2.0891650024 -0.9831874167 14.4306398371 12.8221435881 -18.6772946607
H -2.2036864384 -0.5556694879 1.9188953174 0.4929290348 -0.3889586298 -0.1278382542
H -0.4921849930 -0.3373622113 2.3293486957 0.8357245396 -0.3152200576 0.0299957496
H -2.2364294058 1.7072019240 2.3029685185 0.5943290171 0.2897633943 0.0544160663
H -0.6551539610 2.0259213093 1.4118901802 0.0891144937 0.0817905318 0.7102807149
H -3.3602864510 1.7367626307 0.2823208658 0.5897216753 0.2956828497 -0.3704840388
H -1.7515231473 2.1427800795 -0.5612615863 -0.8903235534 0.0381624262 0.5268974748
H -3.0790221006 -0.4971415629 0.0061180356 0.0818364273 -0.3148083657 -0.6687019447
H -2.1438691482 0.0308327955 -1.4985345185 -0.1873109926 -0.3946728269 0.2641922499
O -2.8120552120 -4.9242290405 -1.6910640637 2.0624803273 -8.9864448916 -1.0694065676
S -3.2677968606 -3.5338161079 -1.4522626261 1.0489175955 -2.3074378246 -2.5565720214
O -3.6361259811 -2.9670460577 -2.8134871398 -1.8952111632 3.7296048840 -5.0401372416
N -2.1097213532 -2.5200754313 -0.7307663296 -32.7058107686 -3.5929794554 -9.5225745428
S -0.8125622860 -3.3987367928 -0.0145909476 -5.2485254739 -45.4747949135 -5.2241666208
O -0.3828609808 -2.6970862152 1.2402750768 14.6942310025 -1.3183888663 23.7389037756
O -1.1430758528 -4.8324150318 0.2393695395 -0.6622260818 -5.8134161004 1.8374611150
C 0.5530727179 -3.2472275522 -1.1696708341 5.1238216357 -1.9504226210 -5.8106018298
F 0.8376169726 -1.9015038106 -1.3017478426 -0.0476702626 -1.9420402009 -4.3048832229
F 1.6760467217 -3.8646907422 -0.6806522632 1.8574806338 -0.9158119960 -0.1381843484
F 0.1427949740 -3.7274022071 -2.4022061798 0.4037623351 -0.4299777859 -0.8378010848
C -4.7579841904 -3.4758774401 -0.4766912614 -4.6654653167 -0.2017671457 2.1443695950
F -5.6527673210 -4.3251271561 -1.1254955343 -0.9197652398 -0.7002979822 -0.1759069795
F -4.5558110838 -3.9518474130 0.7969975407 -0.0869568455 -0.1164982822 1.6263140071
F -5.3137152391 -2.2162328020 -0.4934668843 -0.6503485028 1.4513872338 0.6139634199
45
energy=-60074.9709663409 config_type=IL_pair name=Pyr14-NTf2 Properties=species:S:1:pos:R:3:forces:R:3
C 3.5643263827 -0.3619965070 0.5885516363 0.9587341508 -0.7315704670 1.1182241312
C 2.2837798502 -0.5387637463 -0.2421627320 1.8612161129 -1.8598065769 1.0089853534
C 1.4903079564 0.7191798064 -0.0392478096 0.4264310544 1.2933912267 2.9048467530
C 0.1945371893 0.7972068382 -0.7472265748 3.4530314773 4.4202159605 4.6891271776
N -0.7997941831 -0.1704728510 -0.4708691512 -0.5304943293 -0.6033219912 -0.0604377325
C -0.6776610520 -1.3953969013 -1.2089508222 0.4155769759 -5.7611853218 -2.7651763125
C -2.0787960463 0.4306653261 -0.8079084408 -4.0734764941 3.1608970009 -4.0951949841
C -2.7134629595 0.9226619391 0.4432511458 -3.0845991313 1.3622147328 1.2088580971
C -1.7480208351 0.6001193147 1.5345203458 0.6757838133 -0.3561363295 2.7492911417
C -0.9479089190 -0.5237579038 0.9121538505 -1.8535621029 -2.6748802797 4.7974218933
H 4.3992330317 -0.8490700821 0.0604782712 0.2977903645 0.3572309317 0.2264061222
H 3.4708323797 -0.8667027390 1.5769965222 0.0696444731 0.2692126932 -0.3452424697
H 3.7622691705 0.7037317179 0.7954819277 0.3716613769 -0.2425762265 -0.3023203189
H 2.5971996412 -0.6295715697 -1.3058816840 -0.7775850105 0.1445955411 0.4110042198
H 1.8364389598 -1.4560428444 0.1370393904 -0.7742499602 -0.3850842556 -0.1176681461
H 2.1294548049 1.5271432705 -0.4578966785 -0.7043421615 -0.3105652277 0.2122114085
H 1.4380339373 0.9543097552 1.0453143517 -0.2736805008 -0.3275031010 0.2202330869
H -0.2313717170 1.8097417049 -0.5889748793 0.1231256071 -0.5028357740 0.1063459734
H 0.4053351311 0.7503708414 -1.8444597637 0.4886085876 -0.4050833649 0.2814691949
H -0.0674427347 -1.3064841588 -2.1286043658 0.1030869486 0.2833012421 0.3731962745
H -1.6906202850 -1.7192096818 -1.5225124255 0.3603409010 -0.0038108521 -0.0183866881
H -0.3216865550 -2.2290829590 -0.5489805000 0.4047054043 0.7516180572 -0.6172437608
H -2.7394010310 -0.2637500055 -1.3620517775 0.2824263713 -0.0527768185 0.3078318297
H -1.9628821841 1.3244261275 -1.4883260035 0.5787986192 -1.2129799296 0.0246726003
H -3.6515666013 0.3608454936 0.6106369231 0.0332346883 0.2727720139 0.0573039289
H -2.9677740547 2.0006543545 0.4264732940 0.0455022833 -0.2952077659 -0.2080255865
H -1.0535420979 1.4097943917 1.7962420691 -0.2855509200 0.3455224606 0.1875628099
H -2.2792442510 0.2016399456 2.4344297487 0.5728114146 0.6110475977 -0.2697335635
H -0.0462270022 -0.7710945613 1.4561366922 1.1021468284 0.0612963462 -0.1737388581
H -1.5943459258 -1.4310943163 0.9463474397 0.2700707504 0.1911638725 -0.0074087168
O -0.2388915570 0.9013509498 -2.8250004023 -5.1332807704 -6.4037632331 -4.7168244595
S 0.1028910338 2.2980954994 -3.3075973716 5.9438834375 0.1163200182 -1.5317106841
O 0.4316496300 3.2120316635 -2.1745390076 0.9915606588 5.2834118566 5.8811248901
N 1.4933598485 2.1310927258 -4.3404862800 -0.2819537401 2.1427252022 -5.3109047348
S 2.7314673071 1.4234442553 -3.3681563691 -2.9933558686 -0.9644789267 -3.3185614751
O 3.4414442752 0.3784338999 -4.1938416936 3.6980495226 -3.8696982968 -4.3341485952
O 2.1515726571 0.7371405030 -2.1716264062 -1.6025073900 -1.9985604025 3.7642725575
C 3.9525561495 2.6173480467 -2.8959847400 3.7042563861 4.6974423909 1.1190609182
F 3.4275605925 3.6608694031 -2.1650457428 -0.5041047615 1.1135842881 1.0480423897
F 4.9295465286 1.9960572843 -2.1435078235 1.0908046589 -0.3896164425 0.4822077266
F 4.4736654997 3.1756622638 -4.0573105218 0.8659504115 0.2320010395 -0.7066862440
C -1.3068343287 2.8911828353 -4.1831570590 -5.0715652879 1.8927288751 -2.4441766489
F -2.3372736909 2.9749881847 -3.2362759280 -0.6763832308 0.3441083847 0.6843232203
F -1.7052158622 1.9540493530 -5.0892088364 -0.6013918517 -1.0026484889 -1.8135154682
F -1.1085756776 4.1264838097 -4.7469864115 0.0055559853 0.9990884115 -0.7019920739
45
energy=-60020.2551970596 config_type=IL_pair name=Pyr14-NTf2 Properties=species:S:1:pos:R:3:forces:R:3
C 3.9579047219 0.1368393640 -0.3776681871 1.8170272606 0.0402886891 -0.8730487796
C 2.8110288502 -0.6723959926 0.1465008053 -0.4542010398 -1.9088419553 0.5350955869
C 1.5309671673 0.1122957162 -0.0619830088 0.7787837544 0.1003797587 -0.4876032063
C 0.4048286261 -0.7426200782 0.4809897115 3.5291442080 -2.1413538604 2.0347421970
N -0.8784966613 -0.0853381515 0.3327262488 2.5607668371 -0.8712079933 0.8123557921
C -1.0295043473 0.8165842952 1.4355579756 0.1553877349 2.2239184716 5.1715368010
C -1.9775998554 -1.0105317530 0.3222083815 -4.2682128142 -3.1598995418 0.9676779358
C -3.0877847444 -0.1141761641 -0.2251314172 -1.6215853506 -2.7749031542 1.6685237500
C -2.4226416495 0.7828740142 -1.2442154356 -101.1050729118 -122.2955145841 48.3087650118
C -0.9539970466 0.5283708235 -0.9595883892 17.3892137576 -8.9811436831 1.2736077408
H 4.9415769329 -0.3145556139 -0.1371816094 -0.2747356923 -0.0639079677 -0.2477945299
H 3.8364702748 0.2017836136 -1.4912509213 0.4308321235 0.4345001573 0.8656738952
H 3.9446690072 1.1203247310 0.1080145159 0.0381379522 0.3282404225 -0.4008606904
H 2.9041290821 -0.9077089461 1.2212594138 0.3078626023 -0.1410783011 -0.0708741032
H 2.6778080580 -1.6211386748 -0.4225604389 0.5122172846 0.1657235347 0.4168190623
H 1.6453755392 1.0492785361 0.4890935719 -0.3864462371 0.4822891420 -0.1343430372
H 1.4489513432 0.2722863531 -1.1497658579 -0.4220895406 0.6513070837 -0.1840915227
H 0.4012336251 -1.7157608522 -0.0253014740 -0.2757117391 -0.1635429343 -0.2678270813
H 0.6562946070 -0.9290027984 1.5634417548 -0.6838940590 -0.1223238871 -0.6109715799
H -1.7816149006 1.5942447315 1.2901035480 -0.0969108929 0.3381477663 -0.4041682028
H -1.3538280341 0.1971510220 2.3113573580 0.0820341983 0.5140718351 -0.4392597543
H -0.0529463594 1.2490188521 1.7503731266 -0.4918041748 0.2017533182 -0.5960732303
H -2.1847707101 -1.3556191382 1.3477509196 0.3977405987 -0.5168650926 -0.1067172283
H -1.7283293268 -1.8026390771 -0.3846331801 0.0125549364 -0.5721993506 0.0202401761
H -3.5007916576 0.4623999291 0.6250715976 -0.4939081643 -0.4205083944 -0.1016453096
H -3.8270725103 -0.7414829768 -0.7360951000 -0.5072147598 0.2603572007 0.3325469065
H -2.7097239221 1.8346357279 -1.1632487783 -30.0881706907 8.8337627656 15.4987002343
H -2.7053725028 0.4686168815 -2.2814659280 -3.1185503256 -6.4314501218 -0.9743542635
H -0.3229639722 1.4301615447 -1.0617449267 1.9973948701 -0.9490781740 1.5577595080
H -0.6437996344 -0.2438959186 -1.7026142766 0.4375995713 0.8219027269 0.4147971803
O -1.7038549018 4.4671552237 -0.7707200893 -1.3784401842 1.0827975986 7.0562221635
S -1.3543236609 3.9386404284 -2.1351550393 4.7706640807 4.8364027661 -1.0134402312
O -1.9175890243 4.9517410155 -3.1227754344 -2.4860723801 2.8908545618 -4.7834917510
N 0.3058730087 3.8376220238 -2.2719822115 3.0837805476 2.7089503292 3.6943821406
S 1.0144222526 2.6736544890 -3.2442457813 -3.1784505824 0.1329695735 -1.6330121888
O 0.8711963173 2.9353419961 -4.7206555547 -0.3977466942 1.7590988934 -6.5068427386
O 0.6222989012 1.2427068361 -2.9461019802 -1.7076571378 -6.4584191072 2.2000500706
C 2.7798492911 2.6873844563 -2.8743893087 4.7161977641 1.9908699720 1.7293996934
F 3.2839899464 3.9475921076 -3.1562209141 0.7592131546 0.9280647094 -0.3819718124
F 3.4489532726 1.7602375430 -3.6367671861 0.5618437189 -1.0419017451 -0.4119950748
F 2.9600235123 2.4767489021 -1.5223890455 0.4943911773 -0.5182357752 1.1841046789
C -2.2711783954 2.4597516734 -2.3821504958 -6.3941023452 5.4082609940 -10.8391969323
F -1.9665552313 1.4472244782 -1.5123143318 116.1044055797 122.5130531607 -63.4925586089
F -2.2922759471 2.0574747561 -3.7036090637 0.2935069994 -1.4072824434 0.1631124802
F -3.6010500535 2.7765325633 -2.0640718444 -1.3806179826 1.2902758916 -0.9197954576
45
energy=-60058.6918003604 config_type=IL_pair name=Pyr14-NTf2 Properties=species:S:1:pos:R:3:forces:R:3
C 3.4493090822 0.4433161030 -0.3339940434 2.2926187803 2.0105986963 -2.5598534131
C 2.8951812913 -0.3520365977 0.8022643235 1.4036197684 -1.6038692276 1.9809329936
C 1.4118545693 -0.1015895429 1.0507033098 1.1438812747 0.8581700506 1.8548687006
C 0.6715481211 -0.4765174833 -0.1935962389 5.4338897999 0.8073250671 -1.9453786635
N -0.7299217276 -0.3124565992 -0.1576675172 3.0653575469 4.6857773199 0.0817565606
C -1.3328718151 -1.4863768874 -0.7667221947 12.8670175674 -1.5836123148 2.2134022282
C -1.3236122039 -0.1755840587 1.1350795488 -1.8007143339 0.3293356241 5.0439252544
C -2.6754437164 0.4593671258 0.8701988438 -1.6106707213 0.8176733777 2.5439125711
C -2.4260970055 1.3518138662 -0.3179720188 -2.4427561533 1.8602946863 -0.0546473361
C -1.1851558798 0.8112306769 -0.9662768691 -0.5047070984 3.2158418981 -3.2289790148
H 2.7742175687 1.2621297759 -0.6953188805 0.5754078113 -0.3942302082 0.5209846445
H 4.4373049800 0.8947133157 -0.0313177732 -0.9732529349 -0.0935690272 -0.3495715930
H 3.6977563835 -0.1650119202 -1.2403680741 -0.4041565534 0.1534498321 0.6230002282
H 3.4922733245 -0.1532618368 1.7382416636 -0.7348417925 0.0652074986 -0.6527347907
H 3.0885754529 -1.4237236048 0.5924721160 -0.3944433130 0.0677987303 0.1442687002
H 1.1483197974 -0.6873147975 1.9335442433 -0.5476648177 -0.2589427741 0.1849437219
H 1.2922203292 0.9721647974 1.3000691702 -0.1675956978 -0.2289616750 -0.0793477042
H 1.0651037683 0.1940549053 -1.0115794068 -0.3164189954 -0.7917557688 0.5544037761
H 0.9758236023 -1.4932816982 -0.4916076302 -0.3878251789 -0.2659805046 0.0575127861
H -1.3193014128 -1.3588577432 -1.8597398582 8.1758071722 4.8922031753 -4.5413724695
H -0.7208425096 -2.4055494741 -0.5524527358 -0.2146192610 1.0739290292 0.8866272817
H -2.3578635751 -1.6655791631 -0.4143792926 -5.5541590784 4.7616737218 30.7715017163
H -1.5044465664 -1.1693067824 1.5973415199 0.7042906323 0.0613229867 -0.0434932048
H -0.7971704920 0.5299423972 1.8057986636 0.4540763786 -0.5182708847 -0.2187578825
H -3.4599064160 -0.2730375125 0.6811789146 -0.1924219128 -0.4396688588 -0.2795412292
H -3.0084790850 1.0467869862 1.7734259729 0.2950490233 -0.5341385421 -0.7456980474
H -2.3232833678 2.3981973904 0.0141900606 0.1554787869 -0.0220780454 -0.2192543712
H -3.3303405015 1.2753703689 -0.9564494116 0.4766972252 0.1888353217 -0.3434204761
H -1.4910627185 0.4837732608 -1.9968236198 0.6938997174 -0.6048548076 0.4697819324
H -0.4136892776 1.5766247323 -1.0965273227 0.3860003991 0.1406520771 0.2614667065
O -5.6099860833 -1.4530283341 -4.1984023243 -3.6797008356 0.5778878424 -6.0689474693
S -4.8128004166 -1.8121729009 -2.9744820390 2.9279842080 0.9002489739 -1.8550005018
O -4.4862964904 -0.5443495709 -2.2457595469 1.8711526526 6.0311644774 4.7817683776
N -3.4189903078 -2.6853867855 -3.4691773434 1.0074062430 -2.7166895228 -5.0778426427
S -2.3038334708 -2.9232489074 -2.1854115567 -4.3971260896 -12.5745852775 -17.1946379873
O -2.4675082053 -4.2905545330 -1.5724331531 -0.2087180778 -6.0154750248 3.4171127944
O -2.4538293165 -1.8259210971 -1.2058737992 -21.7740253535 1.5770865979 -10.6424476435
C -0.6672190859 -2.9172066355 -2.9320849338 4.1670953232 -1.3486969723 -3.2809113234
F -0.5677028745 -3.9321521201 -3.8618220353 0.5625933285 -1.0360907111 -1.1281172275
F 0.2939365536 -3.1589604305 -1.9495476352 1.0216698578 -0.2987877753 0.4316764749
F -0.4232886751 -1.7230945995 -3.5756890883 0.5379575655 0.9744825789 -0.7049897987
C -5.8942895116 -2.8455421891 -1.9805099558 -2.9710501840 -2.8933403564 2.2114587153
F -7.0173226595 -2.1457457854 -1.5804064355 -0.7458532665 0.5676682204 0.9045363832
F -6.3427370963 -3.9034578777 -2.7328257693 -0.4342895318 -1.5403746731 -0.5664146726
F -5.1213660815 -3.2811942855 -0.9286858739 0.2521076908 -0.8274678634 1.8294568306
45
energy=-60077.0926716164 config_type=IL_pair name=Pyr14-NTf2 Properties=species:S:1:pos:R:3:forces:R:3
C 3.6441747591 0.3573451310 -0.6975563532 0.6396838855 -0.1870190069 -1.9699912598
C 2.1936202315 0.5175726476 -0.2259098029 1.4772713768 3.2920577635 0.0247908222
C 1.6379344206 -0.7456286775 0.3150570373 2.8750818723 -2.6921803019 0.8616165194
C 0.2451684409 -0.7283212334 0.8190430852 0.1292724061 -1.9326750271 5.1813354402
N -0.7920009176 -0.3922751612 -0.1387275799 0.9533781376 -2.0075585399 -0.4017613826
C -0.5032820663 -1.1320411605 -1.3563817839 0.0265194703 -3.5300113901 -2.8123704303
C -2.0862030300 -0.7499894079 0.3940223600 -4.0857765307 -2.2343712286 2.5355469413
C -3.0239176308 0.3103778950 -0.1193300198 -2.5108092928 0.3224107922 -1.2607909395
C -2.1795168024 1.5594776702 0.0663335152 -0.9549026477 0.2807998690 0.8002205286
C -0.8137053135 1.0123993833 -0.3289574619 1.1032497950 7.5005467421 -1.3914383368
H 4.2088399408 -0.3679025479 -0.1011827878 0.2852032687 0.2196848124 0.2604896136
H 4.1132165753 1.3613709803 -0.7319127518 0.1912770145 -0.4989677218 0.2921396334
H 3.6358339607 -0.0044204772 -1.7598459852 0.1707381637 0.0259289881 0.7854542676
H 2.2723843807 1.2874245580 0.5958874655 -0.8174815904 -0.4517210253 -0.7494389488
H 1.6869112044 0.9370058483 -1.1125784634 -0.5179021376 0.0090415464 0.5227832441
H 1.8502592535 -1.5769719199 -0.3965729972 -0.5047222905 0.3165754984 0.2392319482
H 2.2821566609 -1.0139772893 1.2110504444 -0.7667343027 0.2205641149 -0.7156307919
H -0.0476178886 -1.7262926647 1.2658281812 0.4778557851 0.6053300835 -0.6098078091
H 0.1028164878 -0.0092935330 1.6606841990 0.3951366710 -0.1939891540 -0.2565341516
H 0.0669657935 -0.5225848599 -2.0545025635 0.2561171519 0.1360351928 -0.4554993990
H 0.0119424418 -2.0729457218 -1.0874348580 0.0256875292 0.2419962049 -0.0838869323
H -1.4317955206 -1.4298384546 -1.8873692240 0.0636624248 0.7552827659 -0.3769334940
H -2.3839285530 -1.7852103719 0.1117801583 0.3772890635 0.2845965013 0.2609749206
H -2.0480269466 -0.6282818670 1.5016250784 0.1235518964 -0.4602568010 -0.3356391305
H -3.9415401965 0.3507066956 0.5031202445 0.0870276665 -0.2017475588 -0.4821083422
H -3.2645391257 0.1606889078 -1.2073450415 -0.0289343250 0.0245010277 0.7071440590
H -2.2350475837 1.8477331089 1.1348548628 0.3616168610 0.1210058448 -0.2299164090
H -2.4887900449 2.4068893268 -0.5426745431 -0.0911887053 0.3084183416 -0.4899354803
H -0.1090548341 1.4857480420 0.3804750283 0.4491237595 -0.1041652252 -0.8021469592
H -0.6032580972 1.2912351530 -1.4015941743 -0.0733054584 -0.3201335535 0.8045115502
O -2.5504999078 2.2240084162 -3.4338252688 3.9848736156 1.8976057464 7.7548973408
S -3.3089196691 1.7777814830 -4.6292999745 3.8368177476 0.5052191042 -2.2120830404
O -3.9396889558 2.9715370752 -5.2737892150 -3.8926649027 5.3887815666 -3.9778290824
N -2.2359710933 1.0582621811 -5.7411757718 0.6741668230 0.4541657385 -4.9492511134
S -1.2656256680 -0.1402753115 -4.9543154458 -4.6605487177 2.2801775729 -0.4182223975
O -1.5527465508 -0.2034070107 -3.4661966704 -0.7053031952 -0.0305396085 6.6848347358
O -1.4544807984 -1.4618514782 -5.5995413081 -0.3487982238 -7.3718882428 -4.0761422293
C 0.4324510852 0.4273330227 -5.0713410536 4.0647881211 1.3227723769 -0.2460818406
F 1.1838347937 -0.5571871746 -4.4302539857 1.1713621938 -0.4251574049 0.5167664515
F 0.5188481377 1.6153173794 -4.3723683110 0.7266182038 1.1223024658 0.5110740682
F 0.8437386688 0.5705064033 -6.3675648896 0.9796815776 0.3805402642 -1.2912899670
C -4.6049909201 0.6422722763 -4.2098168816 -3.9647792012 -3.9008903718 1.7438026678
F -4.1204830633 -0.5180950624 -3.6351726036 0.3946197781 -1.3993937739 0.8976580942
F -5.4601253201 1.2381158991 -3.2881726918 -0.9906501468 0.3118628327 0.5742392363
F -5.2740834892 0.2739389885 -5.3457894147 -1.3980518010 -0.3952657152 -1.3701139729
45
energy=-60039.2528927353 config_type=IL_pair name=Pyr14-NTf2 Properties=species:S:1:pos:R:3:forces:R:3
C 3.9754723427 -0.2169534548 0.2295575856 3.1140571913 -0.3325309986 -1.1873266506
C 2.6471068969 0.4774409222 0.1800052035 -0.8166558503 1.0572234867 -0.8409197536
C 1.4932536684 -0.5279046911 0.0773447010 1.7678898614 -1.3358030063 2.2799175971
C 0.2321583728 0.2563148156 0.0348620074 3.7654319747 5.0614540619 0.3606765719
N -0.9854447687 -0.4448831547 -0.0601127635 0.1907690233 -0.4034773872 1.9891224878
C -0.9059326260 -1.8762925856 -0.2009039377 19.0270305260 -1.0738682003 7.5606038107
C -1.8847011236 -0.1650895750 1.0465735127 3.7134450844 -0.8151091940 6.6205774185
C -2.2272315078 1.2913505438 0.8293278878 -1.0070800525 1.6855401139 2.8588201927
C -2.1407977938 1.4496507224 -0.6575192137 -0.4236920657 2.7358526163 -2.5729747112
C -1.7937192453 0.0572566982 -1.1769078324 1.4369981251 7.6184472253 -0.6780153870
H 4.7124416197 0.3634619364 -0.3936779936 -0.4873471704 -0.4172923649 0.5534356968
H 3.9416365698 -1.2260274892 -0.2548794903 0.0094225216 0.4891789969 0.7759377739
H 4.4207523146 -0.2358266006 1.2390328677 -0.3003325963 -0.5483873022 -0.0567533490
H 2.6084273000 1.0960875364 -0.7461759770 -0.0429130074 0.0954482974 0.5778955057
H 2.5108937954 1.1163701392 1.0613609532 -0.0543018029 0.3189378654 -0.0093959786
H 1.7092625706 -1.1732678496 -0.7680144785 -0.3740589338 -0.2900819104 -0.3968233921
H 1.5002019844 -1.1334613301 1.0155851240 0.0321562063 -0.0454142255 -0.6023808578
H 0.2188669279 0.8808087129 0.9691197195 -0.0282309336 -0.4260146122 -0.7091181551
H 0.3048880358 0.9932474927 -0.8028045200 -0.0725527585 -0.4242769584 0.3479503414
H -0.2620301113 -2.2212789350 -1.0195877569 0.8485962507 0.1154832712 2.0593301574
H -1.9394418238 -2.2092836381 -0.5192124588 34.2285308249 -65.5879365133 78.8271294179
H -0.7211839622 -2.3554036091 0.7709683556 0.4980414155 0.0752222696 0.0858441286
H -2.8144882021 -0.7415564268 0.8306637794 2.6146575155 1.9171129265 4.1618067948
H -1.4534703425 -0.3802409901 2.0256650721 1.2206230704 0.0874510296 0.3242347810
H -1.5565497704 1.9364361160 1.4032993190 0.2452799307 0.6212345424 0.0817900768
H -3.2869096357 1.4398287305 1.1541666600 1.0815933838 0.3418501123 0.3852307356
H -1.3762074427 2.1905923562 -0.9689521308 -0.0131459328 -0.0376769362 0.1667748247
H -3.0961090217 1.8207747155 -1.1058861655 0.5698381855 -0.3990542605 0.2696560760
H -1.1659306216 0.1168226435 -2.0907883472 0.3289087523 0.8000854002 1.7295970013
H -2.6652143997 -0.5789737515 -1.3198100625 0.8954727194 6.3612438765 -1.1101203910
O -2.1029920223 -0.3974737391 -3.1792831897 -1.7151434483 6.0942879147 -7.6062785245
S -1.9240191073 -1.7663491856 -2.6358775219 -2.8881950987 -6.2072866349 -6.1032398720
O -2.7649147694 -2.8051342318 -3.3379131958 -3.2013711190 -4.3863559271 -2.9930459758
N -2.1753036174 -1.9024684360 -0.9530877346 -40.1844781251 50.8296091358 -82.0060514833
S -3.6996463061 -1.4194181004 -0.4159736089 -11.9179386303 -3.5571571575 -1.6411790122
O -4.1113937278 -2.3483535882 0.6964952371 -1.7498010952 -5.0211615466 5.0519171132
O -3.6783863651 -0.0424138131 0.1844681821 -9.5417647787 6.8649865268 -0.6168769594
C -4.9611675757 -1.4611783632 -1.6505884295 -6.4120471312 -0.3229184530 -3.2156838208
F -5.1296610013 -2.7425728398 -2.1603803682 0.1502231839 -0.7054790265 -0.8566983584
F -6.1547154483 -1.1449936737 -1.0213247754 -2.0105182405 0.4801458377 0.4604263156
F -4.7731717142 -0.5131581682 -2.6338319976 0.4591828312 0.5428832162 -1.3069513092
C -0.2178199409 -2.2578142943 -2.9205309142 4.9257191762 -2.8266202516 -2.4107932965
F 0.6710229175 -1.4699630322 -2.2567638144 1.9939590986 1.6211999305 0.1483270260
F -0.0281466896 -3.5691498728 -2.4736611518 0.0222604610 -0.6169793547 0.0470080727
F 0.0776235770 -2.1975965988 -4.2742397622 0.0997039987 -0.0425045142 -0.7800332539
45
energy=-60037.0251196525 config_type=IL_pair name=Pyr14-NTf2 Properties=species:S:1:pos:R:3:forces:R:3
C 3.7127733980 -0.0730360757 -0.1089416747 -0.9805435796 -0.6141873503 -0.2801960159
C 2.2707404967 0.1180165035 0.3730608699 1.4780561331 -9.9336497786 -13.7046784936
C 1.5106585980 0.9242528437 -0.6319581817 2.5897928932 -1.3505124324 -3.5879341176
C 0.0985778512 1.2238306454 -0.3320015809 -5.1320997695 -3.2523519383 -8.6306682247
N -0.7575786768 0.0575954497 -0.2148620460 0.7449121820 -1.3159644575 -4.5455037668
C -0.4151556668 -0.8537587513 -1.2885212606 -2.7015019132 -3.6332399246 -3.9509760531
C -0.7451036333 -0.5328187159 1.0707102128 14.0509588175 -12.7123798624 -3.1614938993
C -2.1640336190 -0.6181026556 1.6142702904 -14.5915506142 -10.6589576129 1.5301674049
C -2.9384297107 -0.5495557107 0.2885923980 -2.9717398855 -0.4945587605 0.4432482460
C -2.1472411115 0.5202143675 -0.3933880189 -2.5179229032 0.8036094360 -2.2918378663
H 4.2539296005 -0.5229149207 0.7325294344 0.7778115081 0.0581099754 -0.2359447539
H 3.6643288879 -0.7840250360 -0.9435025667 0.9150602399 -0.2428080601 -0.4225815007
H 4.1613159459 0.8685475730 -0.4744940830 0.1765953194 -0.2103089882 0.3314352579
H 1.8774218574 -0.8575504029 0.6182624745 -0.5871867379 -0.5301724372 -0.3987559043
H 2.3690395614 0.7222844394 1.2958310336 3.5278192603 -28.6626581944 -47.2652870903
H 2.0303140362 1.9231300532 -0.7925584747 -0.4527458572 -1.2728905133 -0.1904411303
H 1.5725581243 0.3881527202 -1.6319380416 0.1153961093 0.7246414386 0.3552552111
H -0.3701352970 1.8516685797 -1.1492414241 0.6277111971 -0.6431148042 0.6789893981
H -0.0108646691 1.7536917057 0.6525991504 -6.7136815498 -4.5406049831 -0.5729140740
H -1.3738816418 -1.4178357509 -1.4935826762 1.2236287422 -0.2655878342 0.0773802439
H -0.2210002044 -0.3246652130 -2.2403067641 0.2162576704 0.2291609512 0.4145562334
H 0.3859335636 -1.5526637029 -1.0800944279 0.5911750749 -0.1689630737 0.5105629986
H -0.1618114278 0.1114063777 1.7590284672 7.6441470160 -5.5873675106 -2.3340836028
H -0.2727422358 -1.5457769347 1.0988934165 -0.2704156113 -1.3989944991 -1.8860651796
H -2.3680702200 -1.5340510759 2.1779829533 0.4684148170 -1.2079986746 -0.0565859787
H -2.4464019307 0.3012907011 2.1670630910 -12.3374356071 -5.2723517934 1.3949810157
H -2.9661947376 -1.5031001005 -0.2271134592 0.0267410633 -0.4611612678 -0.8130345060
H -3.9834544796 -0.1953737151 0.4529837139 0.3803027208 -0.4175914627 -0.1512761501
H -2.2025329828 1.4549933975 0.1716358329 -0.3911877382 0.5536329462 -0.3013730062
H -2.3629596761 0.6461534043 -1.4709386585 0.0998087721 0.3101079053 0.2139658403
O -2.0085354940 1.0629463020 4.1159046934 -3.1804303609 -2.3664790826 6.3218568413
S -1.2830379747 1.5805037506 2.9095596370 2.9122831279 8.0882292275 4.7937788554
O -1.3472058565 0.5105007451 1.8610282179 4.6535888720 20.8242979823 1.4070007252
N 0.3245606690 1.9119404030 3.3395497733 3.3576982147 0.9761461092 4.5748305055
S 1.3761423082 2.2421067562 2.0469146571 -0.2565672711 2.1502034639 9.7939093982
O 2.3248915736 1.0761708597 1.8632970385 1.1066145354 32.7180713581 60.6280446343
O 0.6940624248 2.4158589921 0.7204768604 5.2835950568 16.0785779751 1.0217367517
C 2.4197946548 3.6686550855 2.3859424854 2.6967759361 4.9490029692 1.6469859716
F 3.1814367687 3.4489689068 3.4992567872 1.1771882829 -0.2085784770 1.4341810100
F 1.6130102314 4.7666973666 2.6261867365 -0.5201389409 1.3093235185 0.0542058631
F 3.2412918706 3.8807082864 1.3087511661 0.9488899093 0.4595280549 -1.2758175720
C -2.1822293520 3.0195190591 2.3582527870 -3.6176150294 4.9667451759 -0.3855572284
F -3.4684051262 2.5527722255 2.0524282877 -0.5253548387 -0.0485841123 -0.6570309168
F -1.5720873744 3.5604242630 1.2467001773 0.1309826902 0.7796076359 -1.1034113632
F -2.3168353336 3.9442293727 3.3711992922 -0.1822469230 1.4962129256 0.5716749635
45
energy=-60041.1935554533 config_type=IL_pair name=Pyr14-NTf2 Properties=species:S:1:pos:R:3:forces:R:3
C 3.5344214703 0.1349712002 -0.4166480945 0.8974243727 -0.0387586210 -3.0971011522
C 2.8801250778 -0.3877194828 0.8194556653 1.4425885061 -1.0181987644 3.0047611579
C 1.4041573524 -0.7104493849 0.6439463329 1.0538710597 -2.9347294923 -0.3563054042
C 0.6705550311 0.5139798319 0.2452709033 3.7591782427 2.2342787623 -0.0582981473
N -0.7350149089 0.3819227607 0.0387401841 -0.7953644161 -1.9780178548 -1.0029910860
C -1.2795754174 1.7257278447 -0.1070081395 1.4632871033 -0.2066524868 -0.3345941431
C -1.5023911339 -0.2443512885 1.0470350708 3.3243455167 -21.7424253217 -13.4975073632
C -2.7386691597 -0.7711285734 0.3421126502 -0.6848809723 -1.8328660042 2.4909537286
C -2.4437489408 -0.7678958593 -1.1244081400 -2.3951562922 -1.2611364889 -2.9126642230
C -1.0412897357 -0.2699322568 -1.2413401663 0.8468382672 -1.4275943788 -5.0516177676
H 3.7520412234 1.1992014505 -0.3214781708 0.2092251364 0.3506669988 -0.0675901291
H 2.8606349334 0.0132707469 -1.3064064473 0.6396082154 0.0721290843 0.5448340469
H 4.4740254535 -0.4115948861 -0.6632495376 -0.3900374158 0.4240457466 0.2123230589
H 3.0091079751 0.3616964302 1.6357582623 -0.2567315185 -0.2785387630 -0.4012374559
H 3.4392985703 -1.2925020451 1.1924103109 -0.7446489351 0.4763447496 -0.4175141833
H 1.3526917244 -1.4860771329 -0.1517657945 -0.2690028124 0.2504744287 0.1579339479
H 1.0853880903 -1.2038861539 1.5552065894 -0.7448221948 0.1202398023 0.6497350148
H 1.1053901816 0.8677876214 -0.7146048731 -0.2154772694 0.0582522970 0.2516809740
H 0.8395557896 1.3267750265 0.9830624793 -0.2214316868 -0.2740140578 0.3067472662
H -0.9443742796 2.3039196735 0.7848046185 3.3192787329 -4.6237236789 -1.2968712175
H -2.3861184319 1.7143952277 -0.1573749043 0.4809650275 -1.8089513820 -0.4891959758
H -0.8053640587 2.1920396477 -0.9866851140 -0.1430152579 -0.0649275608 -0.1090542653
H -1.8426728684 0.4568359684 1.8424707138 27.2587131046 -112.9741299898 -109.7298484562
H -1.0391054405 -1.0955776839 1.5631725211 0.8552534150 0.3308639639 -0.7435456928
H -3.6329289651 -0.1764351282 0.5947889534 -0.3672135772 0.1051013358 -0.2823984020
H -2.9673574067 -1.8268621750 0.6517786826 0.0319325184 0.8564982724 0.1843654418
H -2.5327210902 -1.7901023805 -1.5903852588 0.0164115518 0.9034918496 0.4274551359
H -3.1784152866 -0.1151743035 -1.6457557118 0.5115385159 -0.1974736557 -0.1694841419
H -0.3414575997 -1.1030059779 -1.4371198277 0.0789893285 0.1900257560 0.1370562813
H -0.9961881494 0.4601712824 -2.0757837578 0.6275672201 -0.2416106790 0.0966940165
O -2.2336493153 2.2997453660 4.0653015978 -2.4519780512 1.3341950799 4.7384449878
S -1.5070369511 2.1887691339 2.7321855670 3.4008584442 0.9642391412 6.7422996048
O -1.9256447761 0.8273091310 2.1944869423 -34.4754413984 124.3369883353 123.7792891119
N 0.1639782396 2.1691083307 2.9258923429 2.2469087141 -5.1371564570 1.2286674434
S 0.9887763273 3.5626290490 2.3870887550 -3.3932182366 0.6859997581 1.0950592804
O 0.8056974192 4.6838086435 3.3534647323 -0.3721181715 5.3497037912 5.7844697968
O 0.5591410889 4.0532206440 1.0396975564 -2.2099800838 1.2760247087 -7.6706016161
C 2.7326318525 3.2370828963 2.2512581442 5.8596655055 -0.7051061518 0.3608912693
F 3.3393215930 4.4096005346 1.8096860089 0.2250067444 0.7357372509 -0.3260643177
F 2.9782136224 2.2694461138 1.3171477604 0.6250100848 -1.2318680943 -0.9876273409
F 3.2831438002 2.9358038956 3.4800012654 0.6389377461 -0.6481334940 0.8509381224
C -2.1739489479 3.4178743715 1.6887510556 -4.9595464933 4.9342048092 -3.6690631496
F -3.5644205555 3.2338177220 1.6861701453 -0.7473757456 -0.1424403610 0.1283359848
F -1.8144689654 3.2677013037 0.3543064145 -4.6665136215 13.0331666003 -0.6542674548
F -1.9398610140 4.6617408895 2.1861413026 0.6701215684 1.7532928772 0.1580554495
45
energy=-60053.6248243455 config_type=IL_pair name=Pyr14-NTf2 Properties=species:S:1:pos:R:3:forces:R:3
C 3.5835114047 -0.2855723204 0.8396511379 -2.6052704227 4.0284735774 4.8104274737
C 2.3332709730 0.0771947730 0.0338531836 2.1061251865 1.1826014595 -0.9898425986
C 1.4873139773 -1.1542890183 -0.1565674750 0.2521103771 2.3761462392 -0.8858936359
C 0.2758437698 -0.8379003127 -0.9426998031 2.0433084961 -3.2931460890 -5.9900965451
N -0.6366984945 0.1099040485 -0.4144501067 -1.3433929141 -0.4326413544 0.7312842883
C -0.3134679168 1.4861360537 -0.5612666827 0.0279526338 6.9186651694 -2.0298193026
C -0.9144530500 -0.1798646795 0.9791757165 0.4722571485 17.4008578353 4.4002652096
C -2.3728477255 0.1808842150 1.2053860271 -0.2889560811 -0.1288498286 2.6501025998
C -2.9611374348 0.4298145406 -0.1550550027 -3.1663104874 -0.2086265282 -0.3885443095
C -1.9261194835 -0.1327240929 -1.0782198286 -2.1481480785 1.1022772979 -3.9579821875
H 3.2870273649 -0.2648592996 1.8968244323 0.1358158565 0.3555640168 0.2599373787
H 4.3123027120 0.5186041732 0.6719791069 0.3853050181 -0.3179811784 0.1685083856
H 3.9230724005 -1.2855063096 0.5002344862 -4.2657386471 8.0728541428 5.5127550539
H 2.6962913397 0.4393255373 -0.9715693715 -0.6799210368 0.1157951717 0.6934722933
H 1.8509339247 0.8822080378 0.5800313909 -0.6881244789 0.4969776762 -0.2252094181
H 2.1607612642 -1.8960930243 -0.6780372410 -1.5043904489 0.7305083367 0.0264414294
H 1.2809025835 -1.5809830843 0.8452022554 0.6924067177 0.3263034339 -0.8952265001
H -0.3069463472 -1.7978207236 -1.0878483648 1.0354478693 1.7193222315 0.0128050329
H 0.5250639169 -0.5285898377 -1.9858028594 0.0229189791 0.2675884558 0.3857902259
H -0.2576708460 1.9636701949 0.4321333515 0.7113795127 -0.0082029942 -0.3284683225
H -1.1814361531 2.0117347809 -1.0641686503 0.8529025836 -0.4135569031 0.4985859693
H 0.5486189965 1.7083654028 -1.2299502524 0.0086945712 -0.4501808091 0.6718877962
H -0.2439239940 0.4448224410 1.5855263600 -0.2050548144 0.4250724809 -0.1799294186
H -0.7449557779 -1.2744642064 1.1675709393 23.9844413421 56.2200294600 14.5019376696
H -2.8820035576 -0.6875734342 1.6751909807 -0.1119437285 0.3254394543 0.0841814877
H -2.4857264931 1.0373184665 1.8959029310 -0.2233487810 -0.0908563533 -0.1537349672
H -3.1699410599 1.5006982227 -0.3431719331 -0.0395627498 -0.3447031918 -0.0697497560
H -3.8923141587 -0.1839252906 -0.3091252728 0.4217750856 0.9888748263 0.1386679090
H -2.0680031204 -1.1981073386 -1.3122278850 0.0424981718 0.0123160842 0.0675190239
H -1.9072690148 0.4975920850 -2.0015120693 -0.0370313801 -1.1507124702 -0.1055406503
O 0.8653012329 -5.2610132731 1.2158343543 0.6507727483 -7.7264490421 -3.1714829248
S 0.6469174445 -3.8332500668 1.5689906671 6.5226143799 -0.7902567328 2.5262319267
O 0.2923023187 -3.7514326068 3.0278105953 -2.5197085044 1.6657201832 6.5751962494
N 2.0247426282 -2.8508690953 1.2594383736 0.2562250633 2.2868906056 3.5454656831
S 3.3548278823 -3.7461236348 0.6468407821 -4.2231378239 -3.7417337601 0.5994832053
O 3.8235669758 -4.8070915306 1.5966076354 2.9185801122 -4.2826764297 5.2874473391
O 3.0263210400 -4.4029502825 -0.6717126662 -1.5044600466 -1.8013161392 -6.4972198965
C 4.6699608616 -2.5837306975 0.3451504621 6.3459700258 -0.1969295051 -0.0560932206
F 5.7981287676 -3.1931065363 -0.1521390584 0.6799345153 -0.3156733774 -0.5584957188
F 4.9695311216 -1.9791617628 1.5421756653 2.4290962848 -0.6633360279 1.9868926823
F 4.2188952376 -1.6136109315 -0.5194104279 3.9345329782 -5.0872775795 -11.8473918725
C -0.7168444220 -3.1566635885 0.6464848701 -2.9012424295 -4.8654371134 -4.1996172875
F -0.9725928152 -1.8723903942 1.0283601508 -26.4060111853 -68.7493107680 -12.7769772911
F -0.4166860558 -3.1497126503 -0.7177279526 -1.0520005829 -1.9975052219 -0.7623193483
F -1.8363253406 -3.9283759767 0.8435603687 -1.0190273347 0.0330774511 -0.0531875653
45
energy=-60077.3006320568 config_type=IL_pair name=Pyr14-NTf2 Properties=species:S:1:pos:R:3:forces:R:3
C 3.4284483978 0.1596446874 -0.7963523948 1.9087679275 -0.8861082155 -1.5867812259
C 2.9644015514 0.2267569678 0.6241189370 -1.2643599419 3.0547328667 1.3204120976
C 1.5907159605 -0.4174196560 0.7784358452 0.9731624244 -2.6465773567 -0.5289986284
C 0.5894229003 0.3023517217 -0.0889178182 3.1555811412 2.8112926412 0.8812304944
N -0.7422940241 -0.2509354425 0.0023647765 0.7594705223 -0.2541604548 -0.6898615723
C -0.8172366094 -1.6246089401 -0.4126924322 -2.9002683846 -5.0857565820 -0.4152688879
C -1.3154713792 -0.1388158683 1.3126282741 -2.4515143196 -0.2215931836 5.9517959235
C -2.5213774413 0.7903682900 1.1966533255 -0.5356336558 1.1468857136 0.0549084219
C -2.9098118788 0.6626069886 -0.2830277334 -1.7233040372 1.5006750365 0.1035076005
C -1.5640178741 0.5193621743 -0.9153662711 -1.4386212952 2.6076589991 -4.1505857259
H 3.2632652045 -0.8803657731 -1.1897942820 0.2193780627 0.9851420790 -0.2141319832
H 4.5148259835 0.3959169646 -0.8022422461 -0.3332676552 -0.3007006378 -0.3101646320
H 2.9522049103 0.9186454856 -1.4392254900 -0.1666971569 -0.3691721079 0.0284615740
H 2.7960219028 1.3173437136 0.8447919669 0.4909010851 -0.6230984573 0.2908081286
H 3.6801619462 -0.1320422488 1.3581440140 0.3767188220 -0.5964604602 0.2409566559
H 1.2889880122 -0.5122927468 1.8168386986 -0.2771661782 0.2570530545 0.6198205486
H 1.6840515486 -1.4440302140 0.3649644615 -0.0531600414 0.1061222225 0.3118924116
H 0.5203036383 1.3513798282 0.2700752213 -0.1490583590 -0.0851632700 -0.1993885428
H 0.8662167379 0.3198794353 -1.1418931344 0.3506733060 -0.5958214001 -0.7581914738
H -0.2985668812 -2.3020734658 0.2761579572 0.2847806221 0.1370324954 0.0141060531
H -0.4938334772 -1.7711567672 -1.4586981145 2.1873217063 0.4863435514 -0.7203704208
H -1.9085123413 -1.8849374144 -0.3907997773 0.7115279098 0.0177317172 0.1943350931
H -1.7432277150 -1.1072184474 1.6599883699 0.8151608120 0.0717781817 -0.3079173008
H -0.6107157711 0.2167827673 2.0883606374 0.1315639846 -0.1354706993 -0.4139339789
H -2.1990392693 1.8326722155 1.4012829807 -0.5162076716 -0.2664619758 0.2559539911
H -3.3699951923 0.4581101498 1.8027851610 0.1103811402 0.3065755148 0.6751956596
H -3.5804454429 -0.1929421454 -0.4489599630 -0.1076626671 0.0916524331 -0.2070068814
H -3.3510276288 1.6356050285 -0.6228839596 -0.2283469941 -1.0223902505 -0.0078562918
H -1.1360957010 1.5428166398 -1.0409757666 0.0559564715 -0.6093433957 0.0189430289
H -1.5773600675 0.0085960718 -1.8952591945 0.1451469335 0.1839852587 -0.0268593889
O 0.9039176409 -3.9183812798 -2.8371243371 -0.7396189581 -7.3327770359 3.2234627959
S 0.6977267942 -2.5627882393 -3.4219116117 5.0736195584 -1.8397990205 -3.5276521965
O 0.9990234649 -1.5454644049 -2.3822523289 0.2578349354 7.3655556853 6.4073356827
N 1.6989591028 -2.3927893352 -4.8299779224 -1.9155969653 3.3745948663 -3.9727173673
S 3.1834585948 -3.2552574150 -4.5655839282 -3.8542196296 -1.9143415296 -1.8223350345
O 3.5102686906 -4.1048953762 -5.7856636877 1.5348519399 -2.2081638063 -5.6751016115
O 3.1197058746 -4.1842238667 -3.4087099708 0.8135439087 -4.4760023390 7.3369699639
C 4.4397078786 -2.0086770929 -4.3526385649 2.8816461684 3.7866301425 -0.3344604506
F 4.4385557092 -1.2753073666 -5.5393081400 0.4996917939 1.0361666656 -0.3631037995
F 5.6758654994 -2.5861003234 -4.1764260616 1.3759657604 -0.0906776914 0.4330103625
F 4.0701878610 -1.2297541510 -3.2752418988 0.3863094249 1.2232396709 0.9858357106
C -0.9932056937 -2.4103485691 -4.0132703365 -3.6623992153 -0.8549986635 -3.0512135952
F -1.1837860759 -3.4359378631 -4.9351190891 -0.5099000234 -0.5697873061 -0.5736616157
F -1.1970007684 -1.2237494589 -4.6356334463 -1.0625958590 2.3058039526 -0.9071510213
F -1.8525369247 -2.6088107803 -2.9634582912 -1.6153958642 0.1368017397 1.4175792438
45
energy=-60056.8352961915 config_type=IL_pair name=Pyr14-NTf2 Properties=species:S:1:pos:R:3:forces:R:3
C 3.4445060431 1.2073890336 -0.4947748317 0.6296508068 0.6716850985 0.5604757591
C 2.2598626993 0.4117785948 0.0712894255 2.4838630970 0.3649117092 1.4656274670
C 1.5778763305 -0.3810521464 -0.9893707101 2.0637381006 -0.7861642198 -2.0369301788
C 0.4367556393 -1.1574343174 -0.4471615580 2.3662785637 -5.4366664685 -1.8765649168
N -0.6215607306 -0.4235109171 0.1639367116 -1.4425756385 -0.7117492718 -0.5547166145
C -0.3995037267 -0.1737812059 1.5796183029 9.2502610314 -6.3966944274 -0.9938379370
C -1.8102987059 -1.2890383391 0.0731371079 -2.3318374216 -4.2031559868 -2.7891025266
C -2.9742632242 -0.3990133943 -0.1965950542 -4.5363791797 -1.6598215231 0.8595522877
C -2.4447233001 0.9530877906 -0.5470014837 -1.7408009466 1.5247339902 -0.9097957068
C -0.9570652639 0.8189348037 -0.4595301636 -0.9093927352 3.5232800670 -6.2670325734
H 3.9832594866 0.6364093170 -1.2566063701 0.0939656594 0.1229041519 -0.3505189497
H 4.1346367881 1.3847770493 0.3458902707 0.1571841427 0.1874045353 -0.2085069635
H 3.1128231956 2.1954281836 -0.8558068651 0.1690674102 -0.2461267345 -0.3734050315
H 2.7184216038 -0.3198119104 0.7813420485 -0.6504444697 0.4396927139 0.0015586664
H 1.6582958639 1.1397654605 0.6108616879 -1.0774770665 0.1669568446 0.3845851812
H 2.3455881634 -1.1395926386 -1.3333190716 -0.8802770862 0.5446107456 0.1126261932
H 1.3486974617 0.2128692281 -1.8847772092 -0.3804672702 0.1314241479 0.0429814488
H -0.0180807026 -1.8159782075 -1.2459048656 0.5974636016 0.9018631122 0.3752470087
H 0.8005953190 -1.9071140549 0.3167888485 -0.1621697487 0.7465251857 -0.4965338251
H -1.1565546524 -0.7027597665 2.1955041767 -3.5813464984 -8.7108933798 0.9069947002
H 0.5854863638 -0.5999433615 1.8445907225 0.3244358196 -0.9029600551 0.7694466769
H -0.3823832791 0.8938223279 1.8234920755 21.4959726718 -3.4783068535 -11.8187459721
H -1.8978213741 -1.9569395422 0.9280869467 0.0616353282 0.0282476152 0.7456120323
H -1.7129125774 -1.9656679584 -0.8262019474 0.2139834383 0.5881639460 0.8172510787
H -3.6372783416 -0.7948610835 -1.0061294402 0.6472265699 -0.0318148955 0.3978570500
H -3.6306089527 -0.3910294242 0.7115492378 0.4070341338 0.4927621456 -0.4571052956
H -2.7901990329 1.2302627760 -1.5733654399 0.2663672402 0.2259681085 0.6976254900
H -2.8684796575 1.6686486794 0.1960329539 0.3184977509 0.1031187108 -0.5125002973
H -0.4834829110 0.9763892205 -1.4546812054 -0.3053854660 -0.8392685343 0.5504415238
H -0.6215885255 1.6879658028 0.1807850808 0.6663383677 -0.2984912833 0.4502310282
O -0.0478033850 2.2508923993 1.1092901441 6.2163317290 10.9135950323 -6.4962257729
S -0.6745943582 1.8425735378 2.4364528212 0.2519715462 25.7040737757 10.1868897676
O -1.3378064616 0.5373708547 2.1918177303 -34.7660972539 -16.6692709415 9.9762530751
N -1.7207607383 3.0847765528 2.9700696443 1.7645248079 3.3768060948 -2.3294835820
S -3.0227937554 2.5574257332 3.9298043555 1.9173742540 2.0149874059 2.1987724433
O -3.5862688134 3.7809609911 4.6402911464 -2.4099460306 5.4507340170 1.5780881692
O -2.6524083845 1.5856863428 5.0030059448 2.2534155171 -6.1925518942 4.5908325889
C -4.3444687268 1.9263381082 2.9182246680 -4.5010326035 -1.5831233743 -3.4501808812
F -3.9173162348 0.8617998141 2.1607436191 0.2510845080 -1.6948160283 -0.9343458194
F -4.7919084171 2.9023033722 2.0586757016 -0.4655089533 1.2402291139 -1.2314285682
F -5.4327191853 1.5610229594 3.6853743513 -0.7913426792 -0.6498765448 0.8158227193
C 0.6932674203 1.6544626774 3.5846853974 4.5210295095 0.9530982554 4.0446346628
F 1.4135224216 2.8286746956 3.6762737282 1.1943713100 1.0516958958 0.1592925609
F 0.2508679470 1.3285723616 4.8370464791 -0.6030012463 -0.5574472604 1.5465666406
F 1.5135867568 0.6317027161 3.1333699274 0.9449220760 -0.4304220593 -0.1601019953
45
energy=-60061.8176436082 config_type=IL_pair name=Pyr14-NTf2 Properties=species:S:1:pos:R:3:forces:R:3
C 3.4099481043 0.4862745658 0.6160809423 3.0067121939 3.2769966693 0.9243906498
C 2.9729946499 -0.6132402593 -0.2882263184 2.8914338232 1.2270782830 -2.1768185559
C 1.5145301370 -1.0024462191 -0.1530167042 -3.9009551730 3.8288282616 -2.7783088190
C 0.6116931303 0.1401023197 -0.4503837866 4.2185932933 3.4652537552 -1.0714492355
N -0.7909014866 -0.1031420085 -0.3564356259 -1.2758322327 1.8898579213 -2.4267627430
C -1.3170551964 -0.9816580025 -1.3827514192 -4.6703284004 -1.4258475709 -5.8461763875
C -1.2520161539 -0.5643950050 0.9144794861 0.5305260502 2.4234465935 9.5771728396
C -2.3088263128 0.3557139094 1.4269515019 -1.3990834300 2.9594542537 2.4078184642
C -2.7205653200 1.1365007711 0.2061234846 -0.9828027410 2.2877973982 -0.3446130676
C -1.4264092338 1.2069632108 -0.5705618481 -0.7615626917 4.2177162952 -0.1008059764
H 3.8670778018 1.3007896727 -0.0154185797 -0.4730339323 -0.3714964881 0.7669245933
H 2.6391601855 0.9599483701 1.2294105259 -0.3810402042 -0.0960495758 0.0531226959
H 4.2431607193 0.2001202267 1.3213498916 -0.8816189114 -0.0429867511 -0.5972559280
H 3.5698322434 -1.5231897341 -0.0023979634 0.4738858821 1.8469222376 -1.0686733364
H 3.2319244082 -0.4050197934 -1.3481467500 -0.2001733733 0.3313060025 0.2683738278
H 1.3666145105 -1.8448166842 -0.8476835364 -1.9317197538 1.8579171376 -1.9251295629
H 1.3552387962 -1.4238551591 0.8616404833 -3.6782170075 8.9028412964 -3.3647204013
H 0.8177070664 0.4874129097 -1.4835287715 -0.2638941102 0.5218300547 0.2231498587
H 0.8217837833 0.9498867843 0.3011142449 -0.0875938969 -0.3520036544 -0.8785436249
H -1.0771202616 -2.0448937438 -1.1881416928 0.5060024004 0.6939624648 -0.3267649670
H -1.0652812869 -0.6623615784 -2.4064966881 0.1781991023 0.5035916207 0.1357519699
H -2.4364846574 -0.9322538528 -1.2434127358 1.0030017417 0.0624234826 -0.5619251805
H -1.7096404280 -1.5922668671 0.8733705900 0.1327526537 3.1323152746 0.4085950355
H -0.3689382018 -0.6314560552 1.6115116867 -1.2063305891 0.8501213844 -0.0129817149
H -3.2103423085 -0.1887463538 1.8017609633 1.2111716226 0.7438953689 0.5295854737
H -1.9199240221 1.0176535287 2.2210959656 -0.2863550138 0.2521974529 -0.0624711730
H -3.4650642749 0.6225606736 -0.4084392342 -0.6461867768 0.1401835432 0.1841346689
H -2.9996676402 2.1842325592 0.4714817764 -0.5424620092 -0.6688275013 -0.4551942628
H -1.5399815348 1.4617277960 -1.6250513311 0.1128400974 -0.1613548746 -0.5447506516
H -0.8134472165 2.0038540185 -0.0862785573 0.0153142912 -0.5316094192 -0.3680245043
O -3.2205041671 -4.7862998839 2.8561633385 -3.2610396046 -3.6747920483 5.8659197264
S -2.5698690162 -3.8464335521 1.8911101183 3.8486425775 -2.4124570391 0.1071543537
O -2.4572492480 -4.5287554736 0.5585343563 0.1960599109 -2.3151451443 -7.0946843982
N -1.0065362223 -3.3587604990 2.4340600021 1.7950792001 1.7899977257 5.9394429238
S -0.0063126170 -3.1290291485 1.0651446580 -3.6217598602 -5.2937897712 2.8211238372
O -0.5720068045 -2.0407088967 0.2184059690 3.3106206213 -4.8416163501 -5.9614438633
O 0.0658067166 -4.4111558869 0.3064434446 1.4593516852 -6.6825175175 -3.9029184902
C 1.6423426145 -2.6595306692 1.5021871421 6.5669453454 -2.4437802295 3.8523741380
F 1.6583877390 -1.4642026560 2.2202867467 0.9154472712 0.3348173492 4.1035369954
F 2.3585616317 -3.6460449569 2.1082516803 0.4989222175 -0.7574076757 0.9503543622
F 2.3018531656 -2.3414335464 0.3065866847 7.9440547597 -17.5345910222 4.4931317994
C -3.6266658622 -2.4242207896 1.6803491313 -4.3590174346 2.9248267690 1.6964461587
F -3.7591742159 -1.7517631656 2.9010826804 -0.0582373128 1.0207603443 0.1554713493
F -3.0841094296 -1.6200010382 0.7174296060 -4.7941961439 -1.8604608143 -2.8649734619
F -4.8881141720 -2.8556957292 1.3313858368 -1.1565544120 -0.0288418244 -0.7236510331
45
energy=-60007.4519233814 config_type=IL_pair name=Pyr14-NTf2 Properties=species:S:1:pos:R:3:forces:R:3
C 3.9745222890 0.6171476064 0.5233619032 3.0482244396 1.2227776820 1.1224918649
C 2.8681684272 -0.1652426319 -0.1049615960 -0.5602191437 -1.3728709207 -2.4818780619
C 1.4787341446 0.2715205303 0.3873558242 3.9184835852 -2.6147937832 0.9135196393
C 0.5071420107 -0.6044552690 -0.3344279853 6.0071051045 -2.1496747490 -1.5141894546
N -0.8577398042 -0.4093548103 -0.0620583128 -1.1726813003 -1.8088715621 -1.3683326703
C -1.5925812332 -1.4883591664 -0.7180112781 -2.5798778840 -4.4866569404 -2.9546918237
C -1.3342948108 0.8248439435 -0.6306064847 -2.9754381239 5.1162633824 -4.6005091396
C -2.4354448104 1.3318532265 0.2752805553 -10.9353142023 8.0061415974 -103.4827233419
C -2.7216986263 0.0935321243 1.1194381009 -7.0791133254 -29.3409706994 6.9058965875
C -1.2706964176 -0.3901758323 1.2945585236 -2.0993370756 -6.6038778201 6.4244179730
H 4.6585267513 1.0938936323 -0.2339111815 -0.6830566617 -0.3354749161 0.6006079728
H 4.6239267413 -0.0534482265 1.1302269119 -0.2219473743 0.4071214934 -0.1083118386
H 3.6180061064 1.4192453974 1.1985211460 -0.0407650707 -0.1187562666 -0.2247877518
H 2.9502530314 -0.0271626361 -1.2146209585 -0.3347433112 -0.1404423999 0.5424002002
H 3.0174458988 -1.2464230873 0.0608808577 0.1060329809 -0.0854089387 0.0594193487
H 1.5084768764 0.1934085300 1.4688188091 -0.0411298911 -0.9916146106 0.3296722254
H 1.3107046533 1.3316022666 0.1062545435 2.5677121170 -3.4811300019 -1.7616156402
H 0.7489611053 -1.6765325099 -0.1766143771 -0.1729422999 0.0550442691 0.2551166861
H 0.6665544370 -0.4355293754 -1.4215310439 -0.3365067902 0.0216369508 0.1797500440
H -2.4121985346 -1.1053203470 -1.3757611099 0.4484245086 -0.2406031996 0.7395876164
H -0.9469248009 -2.0923062546 -1.3957648728 0.1189361270 0.4981419445 0.3555382539
H -2.0175757898 -2.2023787713 0.0189166657 0.1584827784 0.3249335523 -0.2078592162
H -1.8065735588 0.6462844932 -1.6298995402 0.8117017175 0.0798954095 0.6025132930
H -0.5243568896 1.5609441017 -0.7545035558 0.7662788540 -1.2062003548 -1.4391307980
H -3.3296372449 1.6479229516 -0.2834500118 -0.6123662123 -1.2759601052 -0.2791874048
H -2.0600341182 2.1322932425 0.9649258347 41.4489103637 -47.7389059162 -57.2309567976
H -3.2031159567 0.3255967961 2.0716415382 -4.2206103779 -5.3309401382 3.7670064171
H -3.2915488008 -0.5925328966 0.4636781549 -1.4192150012 -1.2019616743 -0.2274157966
H -0.8252215763 0.3744621649 1.9410747331 1.3181858258 0.3360128562 -0.4901372714
H -1.3017794996 -1.3753291926 1.7975574729 1.1883705200 -0.2905690546 -0.6151210287
O 0.2504943097 1.5746809139 1.5032071548 -2.1567084270 -2.7184663026 7.8815083312
S 0.2863948839 2.7216724623 0.5531695847 -8.4936951619 7.1479052107 3.8737190976
O 0.8705933781 2.2319288949 -0.7211136963 3.1919327204 1.3108681460 -10.1860062188
N -1.3110958681 3.3462267702 0.2235697282 3.5737326852 8.7836247672 -6.3268225103
S -2.3459354254 2.6630113766 1.3974650782 -25.4740688146 96.6693877886 65.7405641329
O -2.3514809631 1.1747147672 1.2011336248 5.1327583612 -26.7331086954 85.6640162975
O -1.6936532811 2.9153165804 2.7367239780 1.4910646983 1.9147109394 7.3348398223
C -3.9675446411 3.3375678297 1.4174882427 -6.4902969658 2.0705666572 -1.3832292237
F -4.5840114030 3.1458085774 0.1927808724 -0.9291995882 0.6225443741 -1.1971536485
F -3.8791172163 4.6767909568 1.7430712716 -0.1798365904 0.6609623838 0.1890779530
F -4.7109743243 2.6425530442 2.3341398403 -1.1429373367 -0.4517748804 1.6447501699
C 1.2693916937 4.0107185232 1.2616892579 3.3094337855 3.5940924032 2.5716588089
F 1.3519185078 5.0601336667 0.3758873728 0.3423112635 1.2161402108 -0.4242289465
F 2.5175157440 3.4889809037 1.5508632248 1.5601866508 0.0647435147 0.3470424995
F 0.6616351612 4.3889987370 2.4541018720 -0.1501537640 0.5980608592 0.4658666053
45
energy=-60073.4714331305 config_type=IL_pair name=Pyr14-NTf2 Properties=species:S:1:pos:R:3:forces:R:3
C 3.6180268977 -0.5088452175 0.7781370286 0.5913052518 -0.9287192672 -0.7888859130
C 2.2035641406 0.0778876620 0.6444188564 0.8452096469 0.6245320902 1.1541470045
C 1.7937578940 0.1176469331 -0.8154982832 3.0873502179 0.2587435907 -1.0227986827
C 0.4348339892 0.6786067899 -1.0246003194 1.8392995099 3.8034681396 -4.9330576115
N -0.6634790751 0.0167297633 -0.3987664497 -0.5000209467 -0.3930966305 -0.0003579726
C -0.4569144611 -1.3671459773 -0.0602999134 -1.3777811093 -6.1916504810 0.8911967049
C -1.0412993053 0.7278013689 0.8251423273 0.1449081555 0.6956641511 5.2884181919
C -2.5295497483 0.8111108746 0.8792842189 -2.9473991198 -2.8337963652 -6.9327796028
C -2.9563437710 -0.1650131555 -0.2216577288 -2.1630432056 1.1956699169 -1.9506902584
C -1.8787019973 0.1320580283 -1.2334758440 -2.7996354073 -0.8391238225 -2.4028566438
H 4.0629640456 -0.5166624822 -0.2494600813 0.2809814761 0.0381292031 0.9244172648
H 4.2303396615 0.1072158520 1.4657792029 0.0000470340 -0.5648728255 -0.1556595345
H 3.5305916698 -1.5734871492 1.1066469649 0.5125519588 0.7030710977 0.0648757074
H 2.2311948394 1.1153611748 1.0333829686 -0.4795660355 -0.1770296225 -0.0594106006
H 1.5326674940 -0.4922518027 1.2831871442 -0.4856355671 0.0057744247 0.2084201921
H 2.5636185924 0.8026116388 -1.3078414764 -1.2964091310 -0.5457575271 0.3052487734
H 1.9547578244 -0.8467205600 -1.3376992686 -0.3327719008 -0.0016402761 0.2606705833
H 0.3670970548 1.7560020973 -0.7171716550 0.3905559900 -0.6622590550 -0.1307016467
H 0.2093168484 0.6706307460 -2.1323271446 0.3281750441 -0.0079052360 0.7492811646
H 0.4808838423 -1.7956776855 -0.4090114142 0.5425069574 0.2190078972 0.1154157421
H -1.2629448119 -2.0144259314 -0.5292869699 0.9035278900 0.8233384673 0.2361263578
H -0.6225829579 -1.5179569700 1.0376081686 0.7190770737 0.0253481136 -0.8341702557
H -0.7190692589 0.1245208395 1.7204880329 0.5914241255 1.0392673245 -0.7242727645
H -0.5180767080 1.7040282382 0.8818346314 0.2557962781 0.4787662942 -0.0107774142
H -2.9647882160 0.5432693916 1.8503000117 -2.4337002230 -2.2921305113 -2.3122502993
H -2.8464528591 1.8192309578 0.5378905259 -0.1896566692 -0.0748550744 0.6897323654
H -3.9469521254 0.1987346779 -0.5818174701 0.4200371044 -0.8414003387 -0.0807323144
H -2.9920677485 -1.1994159262 0.1098360144 -0.1726278839 -0.4577715937 -0.0963719891
H -1.9717007121 1.1850901661 -1.5395493980 0.1006915963 -0.0586936836 -0.4657989784
H -1.8426910381 -0.5909343428 -2.0661840467 0.5428370181 0.3251542283 -0.4253752135
O 0.6256172100 1.0842984619 2.8397332526 1.0349163759 -6.7507757256 1.1242683060
S 0.5612919019 2.5931431902 2.9094239315 -4.4493773461 -2.0247515245 0.3481493612
O 0.6863425260 3.1200533987 1.5268868849 0.8487686978 3.5440975805 -8.5098453736
N -0.8663502230 3.0574230286 3.7125297958 0.0206423936 3.4355301640 6.0917768003
S -2.2914914689 2.7541788281 2.8376011789 4.5436354636 1.0165170425 2.0839393062
O -2.3807509123 3.4237655809 1.5176358387 -0.9006152825 4.5600901209 -7.2052585646
O -2.4212198492 1.2693542276 2.6096995305 1.8867392324 -2.5913139882 9.3379283028
C -3.6774670504 3.2319681968 3.8749694971 -4.0971588697 2.0111190173 3.7912884305
F -4.8774537302 3.0011836989 3.1977972990 -0.4006390479 0.0625035431 -0.3113100181
F -3.5799153492 4.5582022914 4.2526081514 -0.2972888331 1.2107215776 0.1295554049
F -3.6903190320 2.4851331742 5.0368882253 -0.0982091454 -0.8336721689 0.9088852023
C 1.9440859826 3.1637053431 3.8832046578 3.9322503038 2.1342603121 3.9630571118
F 1.9228987472 2.6089807120 5.1452507993 0.0298623322 -0.7361232658 1.3240574980
F 1.8354341920 4.5284217344 4.0456837626 0.4812784268 1.4989633154 -0.0728445601
F 3.1567410111 2.8021860228 3.3031605811 0.5438370501 0.0957264206 -0.5717603651
45
energy=-60042.2344841157 config_type=IL_pair name=Pyr14-NTf2 Properties=species:S:1:pos:R:3:forces:R:3
C 4.1008156345 0.1858438911 0.1228776412 3.3435660440 -0.9766437211 -0.5191751560
C 2.7932501898 -0.5110623576 -0.0919612593 -0.7076518912 -0.3641565672 0.0596956353
C 1.5980164720 0.4017559513 0.1579177077 0.0300501785 1.2148564613 0.1518028899
C 0.3958176704 -0.4685125110 -0.1058039853 4.8899767090 -3.8474927276 -0.1499810086
N -0.8700386066 0.1512491954 0.0588617564 -1.2014423709 0.1562707135 -0.5030889155
C -0.9159595229 1.1894878688 1.0438541571 -1.0173178527 3.9276461806 4.3054643094
C -1.8122745745 -0.8736576275 0.4929465404 -2.5313791653 -4.9542392210 2.6596378765
C -3.0545610240 -0.7080141782 -0.3310844926 -1.9359813340 -0.8652205508 0.2081118203
C -2.4687684795 -0.2643483573 -1.6455686723 0.3513579659 -6.3781859336 0.0274026087
C -1.3845230674 0.6639752112 -1.1962034901 -24.7539928233 -1.8159088611 13.5993609538
H 4.4116174823 0.7056147745 -0.8084075575 -0.2325946836 0.4564512941 0.6110561983
H 4.8811059596 -0.6147619774 0.2751935063 -0.4813511277 0.7331215565 -0.1313094783
H 4.1603297959 0.8143690238 1.0128967624 -0.2984633279 0.5048711906 0.0543724814
H 2.7249791300 -0.8205071081 -1.1572781893 0.1466705789 -0.4884506340 0.5646804810
H 2.7074206603 -1.3478625966 0.6246615494 0.0315826288 -0.3204387502 -0.5144417280
H 1.6076822650 1.2849005059 -0.5133899405 0.0908849648 -0.0208052605 0.0971253427
H 1.5376382574 0.7396865263 1.1954260013 0.4997429835 0.2081352929 0.3059836502
H 0.4673300700 -1.3316881787 0.6091199361 0.0202652147 0.3786032594 -0.6024248111
H 0.4682400241 -0.7998933115 -1.1735032848 -0.2677091289 -0.3108898083 0.9497635700
H -0.5355108145 0.8224497531 2.0258836422 0.3280114678 0.2435919059 -0.5317292711
H -1.9999096900 1.4228443164 1.2466552288 0.8669085314 -0.0249366572 -0.4463753959
H -0.4215553311 2.1382536911 0.7189314048 -0.0057721215 -0.5817810246 -0.0972033332
H -1.4053746470 -1.8930541603 0.2999110663 0.0710138885 0.5352572816 0.0517614292
H -2.0420648099 -0.8159918735 1.5750542618 0.5180889340 0.1274627888 -0.0675298886
H -3.6417310770 0.1186536700 0.1053651681 -0.5121442379 -0.3538664724 -0.1220850802
H -3.6108342236 -1.6669695469 -0.3882131913 -0.1951214279 0.4167794591 0.4148917731
H -2.0635429168 -1.1474653081 -2.2057658870 0.1914112715 -0.1519877102 0.6216693472
H -3.2137536671 0.2270173803 -2.2879781884 0.2574286154 -3.8384898856 0.3646294257
H -1.8267732124 1.6711298985 -1.0488979854 0.5201438536 -1.7890897158 2.7667552919
H -0.5870679469 0.7265574349 -1.9686710223 -120.5504609751 -42.6611969908 -6.4219522168
O -0.0688691539 0.8914863669 -1.9660781370 151.4377785292 31.6046779992 -3.5549793364
S -0.6109108251 2.1725430430 -2.5134971832 2.3707103301 12.1358446010 -7.3118718121
O -0.6201240927 3.2687038133 -1.4762845326 -1.5292158260 4.3069732241 5.0690297539
N 0.4846484036 2.7113511243 -3.7385912231 -1.8302140747 -1.2309282192 -5.3773946326
S 1.9038103144 3.2862524132 -2.9221082044 -3.7548125544 1.0090595957 -0.3138240063
O 1.6831082793 3.5115541486 -1.4682258839 -0.2253352242 0.0691923641 8.3810928340
O 2.3403919352 4.5432848439 -3.5783093086 2.7198777097 6.3671440928 -4.6498755917
C 3.1373362610 2.0199001617 -3.0870944541 3.9167665945 -3.9115597795 -1.8596303728
F 3.4281478267 1.7680509615 -4.4258655826 0.5541333036 -0.0999897496 -0.7609997484
F 2.6975168623 0.8419593032 -2.5482380700 -0.4699085320 -1.7980105006 0.8370650585
F 4.2687473838 2.4403214164 -2.4167120614 1.2862351995 0.0711515624 0.5570436875
C -2.2513700728 1.9810331545 -3.1497410860 -4.9723412521 1.1875330412 -4.1975843610
F -2.2763347207 1.0587894107 -4.1685141297 -0.4426858425 -0.7380295019 -1.0859902991
F -3.0392631737 1.5086276606 -2.1120692321 -5.1384001993 10.5675754537 -2.5090486895
F -2.7134740212 3.2115168757 -3.5508463133 -1.4000665301 1.2872864118 -0.9490261026
45
energy=-60070.5531096632 config_type=IL_pair name=Pyr14-NTf2 Properties=species:S:1:pos:R:3:forces:R:3
C 3.9077775101 0.5021311545 0.0877357947 1.2667992681 1.2916982726 0.4586143036
C 2.8463377052 -0.6009436861 0.0609434701 1.0833843285 -0.2163493008 0.6025085061
C 1.4902498231 0.0432608386 -0.0774456390 0.4580281563 1.6570282288 -0.3492858356
C 0.3613303955 -0.9540260006 -0.1147732820 5.1796240929 -2.1624306021 0.2583320692
N -0.8710212529 -0.2009751294 -0.2490690856 1.1846469723 0.7763145660 1.5261873530
C -0.8285369858 0.4325983609 -1.5377026428 0.6632532801 6.6218307478 -6.5092651788
C -2.0475561124 -1.0443266621 -0.2233065637 -6.4585867572 -2.2284024238 6.5472706909
C -3.1177124337 -0.0408437603 0.1461244187 -1.8414080029 0.3075702615 1.6089452321
C -2.4428204430 0.6554592979 1.3255082370 -1.7990258452 1.1740499742 0.5350938764
C -0.9999408412 0.6879538782 0.8661849430 0.9906102663 3.0093932298 5.7790874358
H 3.4768345026 1.4201799173 0.5569547296 0.5371121969 -0.5232297482 -0.0463272215
H 4.2468436087 0.7919845706 -0.9198525875 -0.1693745553 -0.0978399813 -0.0562300419
H 4.8189417482 0.1821342420 0.6516895508 -0.6156622137 0.2504748505 -0.2521705855
H 2.8848680678 -1.0993006632 1.0421832136 0.0827907683 -0.6994530070 -0.2930287565
H 3.0763785659 -1.2534365835 -0.7925818843 -0.2219086795 -0.6246570065 0.2826137142
H 1.5077124104 0.6119172411 -1.0380862229 -0.1604384118 -0.0614220944 0.7450609763
H 1.3268016653 0.7340027886 0.7717043182 0.4354647581 0.0389508153 -0.4292522304
H 0.3782836850 -1.6215222512 0.7467145539 -0.4888094311 -0.0312259514 0.7048024010
H 0.5210552185 -1.5877784998 -1.0264697865 1.1923956688 1.1886565766 2.4857519340
H -0.3993759717 1.4414059976 -1.5316995454 -0.2545871837 0.6499157699 0.8707957913
H -1.8502229532 0.4873989118 -2.0094847100 0.6487354279 0.0168285518 0.4775041212
H -0.2268228133 -0.2128838095 -2.2426924596 0.2741122434 3.4010890558 0.2973791535
H -2.2530133817 -1.5663674449 -1.1543423892 -3.2070560390 0.1928812219 0.5158325011
H -1.9361961777 -1.6970293828 0.6765259977 0.1349285517 -0.0794828485 -0.5914686017
H -4.0398126496 -0.5211222107 0.5280190886 0.0762587225 0.0932884748 -0.7758058917
H -3.3124068270 0.7221041364 -0.6063795052 -0.4463908640 -0.2669442472 -0.6319939532
H -2.6004175053 0.0318037925 2.2229585119 0.3113171139 0.4638314311 0.1261668884
H -2.8504017971 1.6787177124 1.4585054344 0.1778915245 -0.3842494435 0.4067950763
H -0.4117871648 0.2645675563 1.7301673339 -0.0260766770 0.5923140542 -0.9505212066
H -0.6553695960 1.7129356874 0.6519667075 0.1266445705 -0.1784342155 -0.1966229870
O -4.2443041909 -1.7616805237 -4.4068183678 -1.5382254674 1.1537653807 -5.5513231063
S -4.1849415858 -2.1451885680 -2.9344820524 4.6235287290 0.2951434553 -3.1827876839
O -3.7213977346 -0.9742915765 -2.0911215748 1.6060630694 4.9116808783 3.8834482316
N -3.0687511011 -3.4727983948 -2.6955727032 -1.4433525491 -4.6700871000 4.0127479397
S -1.5801158538 -3.1082330258 -3.4454459308 -5.0231626640 -1.2783696807 -2.4663317748
O -1.8062608310 -2.0018729046 -4.4397152010 -0.0834905943 6.4542646048 -3.9201142933
O -1.0300161411 -4.2632734152 -4.2317939181 3.2264153084 -6.5104296784 -2.3389432266
C -0.3884667254 -2.5003944153 -2.2531388771 2.2664896459 -0.5965112403 1.2743476548
F -0.1183675510 -3.3934004273 -1.2631008983 1.0058230511 -1.2638544691 1.6601137761
F -0.9632051388 -1.3774116313 -1.6780954836 0.8370444824 -9.9075837201 -8.9920775368
F 0.7454811545 -2.0597955606 -2.8925082015 1.9481965640 0.5206578495 -0.2727562323
C -5.7736807237 -2.7300422638 -2.3910730703 -4.1617072849 -2.3059564229 1.1669924301
F -6.7107602962 -1.7313122256 -2.5502874101 -1.0035300545 0.8623596781 0.3358437400
F -5.6538463918 -3.1464610045 -1.0917115456 -0.6442634230 -0.5288781338 1.7876703727
F -6.1245822727 -3.7755058574 -3.2140302045 -0.7530868329 -1.3330356675 -0.5471930386
45
energy=-60072.8113550954 config_type=IL_pair name=Pyr14-NTf2 Properties=species:S:1:pos:R:3:forces:R:3
C 3.9395875430 0.8231155121 -0.7554643495 -1.9483436135 2.1981127125 3.7211032444
C 2.8992524286 -0.1374208353 -0.2125208089 0.1483915158 -0.0449333158 1.1666111773
C 1.4897881299 0.4423156384 -0.3551757547 1.4951329632 -1.1330856883 1.9337699440
C 0.5740625666 -0.6176833204 0.2222610830 5.9964569775 -1.7538591619 1.1158280333
N -0.8107586797 -0.2779085816 0.1893125143 -0.7850231975 -0.9507467489 0.3692655997
C -1.4124859719 -0.3071156070 1.5040525741 -1.7459903957 -0.9433264955 5.3168329936
C -1.4922904203 -1.2693489523 -0.6562643127 -1.3539863679 -3.3340919725 0.4773358241
C -2.8007446668 -0.6222161289 -1.0478780223 -1.5496539636 -1.1006193973 -0.9595259931
C -2.6727733315 0.7858435922 -0.5279174267 -0.8282174270 2.2397925610 0.2886649870
C -1.1459240328 0.9396619639 -0.4799684675 -4.2150115101 4.3458392007 0.5841364016
H 3.9519145098 1.7322967201 -0.1319258477 -0.0464972487 0.0335672641 0.0828987000
H 3.7430938214 1.1234810020 -1.8011265114 -0.4858248858 0.5695532840 0.8841504391
H 4.8978381470 0.2581989786 -0.7320222603 -1.9552004291 1.6291863274 3.9684956278
H 2.9740526758 -1.1245898282 -0.7006745283 -0.1347181435 0.1609248973 -0.1609340872
H 3.1517822863 -0.2903320124 0.8546741021 -0.1772959142 -0.1974699776 0.0941602319
H 1.2784000475 0.6735208475 -1.4153471132 -0.0570769719 0.5925359476 2.1949307251
H 1.3712473553 1.3384714402 0.2586782314 0.2180899747 0.3997737795 0.0092258653
H 0.7912716667 -1.5943407615 -0.2966393968 -0.5750865125 0.6897019670 0.5224412642
H 0.8729628399 -0.7280777659 1.2906136778 -0.2077480637 -0.3550750354 -0.4341523023
H -0.7643164876 -0.8716360501 2.2253872358 -0.3901546536 0.4354004765 -0.5511166578
H -2.3843138213 -0.8468517128 1.4710091851 0.3719137445 0.3904950560 0.1128261283
H -1.5870699203 0.7128631093 1.9013770640 0.3014647087 -0.2642321242 -0.0877048635
H -1.6535417971 -2.1563309734 -0.0138972934 0.3037013992 -0.1592971500 -0.5106473144
H -0.8536564381 -1.4528966154 -1.5261839532 -0.1634802947 -0.0856806191 0.1590611426
H -3.6097641608 -1.1998591992 -0.5995305572 -0.6870273676 0.0594593202 -0.0955699909
H -2.9065435161 -0.6329386453 -2.1441202580 -0.1347210999 -0.0406396026 0.0186223439
H -3.1369257017 1.5534122026 -1.1739379979 0.0447236896 -0.1965446068 0.1036248133
H -3.0588145856 0.9073964468 0.5020086915 -0.5329110583 0.0274541213 -0.5886236757
H -0.9073558400 1.8669903984 0.0757355728 0.6167601249 -0.5469675190 -0.0338042663
H -0.7379746461 0.9719791378 -1.5027625037 1.6851329131 0.7030503988 -0.8340445609
O 3.6396236846 1.7347349338 -3.8166480675 1.2732812129 6.3913767870 1.0561193788
S 3.6269398255 0.2189444062 -3.8474716084 -4.0976440324 2.3401003651 -2.0906622581
O 3.3526653313 -0.3080116508 -5.2221306759 -0.4951273271 -3.4458935650 -6.6605636751
N 2.3165348955 -0.2769240820 -2.8368542297 -1.0849789364 -4.8499513222 4.1076631884
S 0.9126766544 0.5828767206 -3.3352998284 6.3515354879 -0.1986501802 -3.6207414778
O 0.3641381455 1.4223501845 -2.2193555575 -3.8621593824 5.0992255699 3.2808618261
O 1.2276555888 1.4740674735 -4.5002849827 0.6414498061 3.9204985644 -6.0334833884
C -0.3079972759 -0.5838741284 -3.9213380854 -1.6829805449 -2.7939190663 -2.7662484310
F 0.3109258783 -1.2414772434 -4.9923578149 -0.6628669060 -0.3881898285 -0.0478678207
F -0.5496306391 -1.4716769183 -2.8991032831 -0.6072441272 -2.4659621214 -0.8591639294
F -1.4132211993 0.1180005532 -4.3285449055 -1.5423082859 -0.1595911498 -0.3141162430
C 5.1600525731 -0.3999366665 -3.1935843496 4.5443555037 -3.8183837768 1.7636530045
F 5.3088166609 0.1240755926 -1.9224036309 6.7429723528 -2.2581821109 -6.3227230033
F 6.2214040872 -0.1061357163 -4.0202505753 0.9395636985 0.4007047690 -0.5257128790
F 5.0497602132 -1.7809749786 -3.0792889724 0.3509503705 -1.1299859805 0.1735918762
45
energy=-60076.4505472180 config_type=IL_pair name=Pyr14-NTf2 Properties=species:S:1:pos:R:3:forces:R:3
C 4.0438107287 0.1946449732 0.6406536282 1.4120717206 -0.4355065750 0.3255380629
C 2.8112906000 0.8273835459 0.0127717811 0.6337135724 1.4494704840 -0.3000704476
C 1.6117491682 -0.0857448784 0.1823107147 0.1525059100 -0.7954011893 0.6957878052
C 0.4281528296 0.5904037885 -0.4556178605 2.9815527392 2.8714357292 -0.5377195030
N -0.7968865582 -0.1507283560 -0.3801185834 0.0105833838 1.6112312254 -0.5416321627
C -0.7424189940 -1.2982422500 -1.2437237318 -1.7657046300 -3.8048587829 -3.9993322179
C -1.8215455702 0.7599528505 -0.9142481214 -1.9818100052 3.1744314108 -2.6642804584
C -3.0897247054 0.4189815383 -0.2066049961 -3.7141837383 1.2033135955 -0.4904715479
C -2.7141786093 -0.6308777453 0.7938039011 2.4374211180 2.1184141313 1.9896498648
C -1.2309633321 -0.4667636930 0.9498431798 -1.1286637285 1.4530486561 2.5171658326
H 4.6792157608 -0.2577865550 -0.1490762432 -0.2461142001 -0.1256770728 0.4091743334
H 3.6841080140 -0.5904625349 1.3277306744 0.6884211567 0.1071145901 0.1739899886
H 4.6820388370 0.9362096961 1.1674995722 -0.3765574238 -0.3709475684 0.0015063856
H 3.0332721890 1.0284863065 -1.0412702759 -0.2946561854 0.0217499919 -0.3850370480
H 2.5979218249 1.8116960651 0.4696291989 -0.0602948176 -0.1572341334 0.0680077088
H 1.8063927353 -1.0727009197 -0.2637819838 0.0577504849 -0.0269578212 -0.0265202339
H 1.4145952951 -0.2289735994 1.2631449338 0.0123770569 -0.0897736486 -0.2283948302
H 0.2433301448 1.5638828266 0.0400889739 0.1740175299 -0.2148567354 0.0846956009
H 0.6057882247 0.8187562313 -1.5207026589 0.2017730533 -0.0912609217 -0.1071354842
H -1.5782303193 -2.0100572786 -1.0094309493 0.5069685658 0.3799569593 0.2591040007
H -0.9579363822 -0.9249450471 -2.2855900187 0.6946854671 -0.6430200643 0.7313790916
H 0.1918614254 -1.8574039768 -1.2319715381 0.5318003668 -0.0065162474 0.3858102570
H -1.5614641079 1.8137914796 -0.6960132751 0.3714692233 -0.2974753642 -0.1769982527
H -1.8838230994 0.6078077944 -2.0059585925 0.0583270148 0.4401163296 0.0473381713
H -3.5278760376 1.3294529815 0.2963933580 0.4743829492 -0.7050853102 -0.5259370668
H -3.8588348191 0.0715739222 -0.9321181106 0.1579115786 0.0021618180 0.3371869225
H -2.9953707640 -1.6478934457 0.5046055619 0.6559688890 1.4147493512 -1.2146697821
H -3.2554354196 -0.4102130766 1.7342008990 0.6144877533 -0.4549135365 -0.0515871510
H -0.9760791117 0.2989151977 1.6781922163 0.5517633042 0.7927922499 -0.1906900976
H -0.8427599475 -1.4391458408 1.3093373337 0.8395282917 -0.6601595637 0.8335180764
O -1.4111766467 -4.3984130505 3.1919823887 -1.0279979192 -3.5305046140 5.4287498492
S -1.1284561369 -3.6781168989 1.8979668707 -5.2513944534 -1.3343680271 1.4605490303
O -0.6097796377 -2.3034425844 2.1959875689 4.4653386615 5.1052877521 2.7485596195
N -2.4734685442 -3.6742081916 0.8358813630 1.2294826609 -1.9968554131 -5.8587739659
S -3.9023311569 -3.0827781317 1.5328125542 2.1436253894 -0.4606681221 0.2049855834
O -4.3742047694 -1.9166086027 0.6820019924 -6.6521334193 0.9695605775 -4.8011510375
O -3.7991956304 -2.6236804709 2.9369547581 0.5873593232 1.8655227509 8.3979352757
C -5.1618608486 -4.3560983580 1.3808050786 -4.0194418082 -3.2048534473 -0.8836295604
F -6.3142772273 -3.8208640338 1.9678522884 -0.5375136553 -0.1336423560 0.2841846313
F -5.4223233170 -4.6058925581 0.0465468296 -0.4126420267 -0.3044920628 -1.1812541548
F -4.8042018074 -5.5241391769 1.9810175169 0.2180519679 -1.7372085300 1.0013603311
C 0.1608714743 -4.6179452714 1.0707580356 2.9983032173 -3.6512480234 -2.1798420537
F 0.4645950829 -4.0108668726 -0.1090181502 1.3063735885 1.0110459358 -1.8979629540
F -0.2839383381 -5.8944385893 0.7867410863 -0.5192671586 -1.2229233421 -0.3401701546
F 1.2502969738 -4.7835018970 1.9186433053 0.8192981494 0.4632087613 0.1983133234
45
energy=-60054.5873391424 config_type=IL_pair name=Pyr14-NTf2 Properties=species:S:1:pos:R:3:forces:R:3
C 3.4329357599 0.1658222077 0.5298539869 4.6235664256 -1.9035460068 1.6731428573
C 2.6233935355 -1.0320338847 0.1182509347 0.4578808132 -3.4433492897 0.4367160377
C 1.3213602981 -0.6586565206 -0.5621921970 -6.3869831256 -5.2974499857 3.4663400172
C 0.4991659285 0.1457712105 0.3646939121 -3.3431411818 -8.2464066439 7.8859761863
N -0.7703437498 0.5833943436 -0.1232044070 -0.4708644913 1.5152739210 0.8411712637
C -0.7476459374 1.9485377508 -0.6258350362 -5.6145975386 8.2961687288 7.7112672737
C -1.6967433877 0.5490886150 0.9977700509 -2.2026217577 0.5809455281 6.1510323634
C -2.7126907193 -0.5168966883 0.7116508897 -2.2127459896 -0.5044191544 -0.8189628121
C -1.9751602541 -1.3534210396 -0.3199980198 -0.0693928900 -2.0829981373 0.7472094691
C -1.3736497023 -0.2330992613 -1.1260543963 -3.4661058711 -2.8477281827 -3.3944236962
H 2.9153019822 0.6754375102 1.3472215337 1.4026582397 0.1245340293 0.7285453864
H 3.5684451396 0.7980701406 -0.3894576161 3.6614254107 -1.3183919185 3.3916763527
H 4.4243045009 -0.2536974231 0.8641654661 -0.3739457413 0.4696208045 0.1562147786
H 3.2634802437 -1.6666967587 -0.5468773605 -0.5817699834 0.2681256547 0.2309373886
H 2.3894902776 -1.6808775739 0.9938715745 0.2662433130 0.2349415054 0.0293471882
H 1.6355638021 -0.0563848711 -1.4631226604 -8.7431284023 -8.7628149425 3.6718095654
H 0.8714272743 -1.5969225353 -0.9068226293 -0.4306398374 -0.5074950641 0.3820580267
H 0.4342303014 -0.3578223309 1.3520768582 -1.2689358459 -0.6069772533 -0.1355535709
H 1.0788209208 1.0955080664 0.5642110104 -5.8306820250 0.3880218398 4.4849718682
H -1.8330470081 2.2560601971 -0.6279010071 0.9853634570 -0.0957937345 0.0315567514
H -0.3532607168 2.0300722875 -1.6569579178 -6.9977671662 4.5714014318 8.3278364735
H -0.2488688734 2.6240550748 0.0840819917 -0.2684538002 -0.5465443837 0.7544027278
H -2.1601175892 1.5301533151 1.2047399491 0.1073192994 -0.0064003016 -0.3480728340
H -1.1956735659 0.2577362039 1.9614437903 0.1543294407 0.5043424501 -0.9764969808
H -3.0320999223 -1.1076757309 1.5827347664 -0.2425264596 0.3705039519 0.0572321427
H -3.5407789101 -0.0342728154 0.1583883860 -0.5117629245 -0.3832668580 0.7288754784
H -2.6458838517 -1.9996811702 -0.9059028270 0.2342071886 -0.1998100120 0.0450414750
H -1.2027006946 -1.9179642878 0.2569599930 -0.2221019102 -0.1388785524 -1.0106122530
H -0.7459684677 -0.5375181557 -1.9420767145 1.0418657232 -0.3994243671 -0.3998604760
H -2.2232866141 0.3439141241 -1.5488134740 0.2659460140 -0.1184925664 -0.1447170185
O 4.6232016207 1.4718632522 -4.0619546550 -1.6109385156 1.3607400190 -6.9958407007
S 4.9783211229 1.4227620443 -2.6014212429 -3.2651696094 -2.8962776173 -0.8662906719
O 5.1541204416 -0.0230533662 -2.1994888474 1.3471998286 -6.0513341290 2.6380442206
N 3.7865580253 2.1734301026 -1.6193295162 -0.6944244276 5.2281801001 2.5907541717
S 2.3324025459 1.2903227542 -1.5220762718 10.3616334396 13.6235759285 -4.1097072097
O 2.4785593896 -0.0892987095 -2.0594503097 10.0617582353 -4.0187352280 -14.0803809050
O 1.8690092339 1.1365910458 -0.0794805191 5.9767047979 12.2188800560 -2.7648054386
C 0.9910519334 2.1601171988 -2.3422782301 1.8090630615 2.6499704845 -5.0298327582
F 1.2442437858 2.3729967279 -3.6638564349 0.1515390268 0.5536382022 -1.3267444482
F 0.6828283643 3.3194749524 -1.6973588934 0.8715876779 2.7894655715 -0.7367034662
F -0.1090849176 1.2976198509 -2.2807082544 4.4612424303 -9.8868473351 -15.4953090013
C 6.5298202352 2.2379527270 -2.4094860342 5.9195395933 4.1207098155 0.6669135469
F 7.5080410685 1.6405271911 -3.2002326834 0.2896879724 -0.6498648977 -0.7144733667
F 7.0147384319 2.2320701982 -1.1310710074 0.4905980404 -0.1242716748 1.9676535599
F 6.4377140437 3.5646445419 -2.8116896662 -0.1238513915 1.1747435277 -0.4358163582
45
energy=-60075.7817606007 config_type=IL_pair name=Pyr14-NTf2 Properties=species:S:1:pos:R:3:forces:R:3
C 4.0321099893 0.4967203438 0.0796859128 0.9968561884 1.3044836603 -0.8072724109
C 2.8032859388 -0.2593745146 0.4551216173 -1.0073050427 -3.3549959748 0.6693457932
C 1.5384418572 0.2622015261 -0.2389206433 1.5234051213 2.2086059329 0.5026000578
C 0.4312848265 -0.6103794869 0.2583266891 3.4247748430 -1.3749240605 2.0337913824
N -0.8653548345 -0.2914290944 -0.2736299074 0.9610580657 -2.0278324767 -1.6984216756
C -0.9358088909 -0.8727940471 -1.6211435930 0.6475992203 -2.3143717532 -4.3259652876
C -1.1744757888 1.0994322007 -0.3499397610 -1.8793924098 5.4504440162 -1.5794971324
C -2.7071978534 1.0695166442 -0.3211500578 -0.5865800457 -0.6494941317 -0.5425416792
C -2.9092297821 0.1237949804 0.8560780416 -0.5937814175 1.8104188025 -3.0121537174
C -1.8504219489 -0.9129882550 0.5918303550 -4.3816135829 -3.4596723820 3.1169469446
H 4.4735235627 0.0007529379 -0.8098712157 0.3147964395 0.5050931686 0.4158668670
H 3.7141659725 1.5247938174 -0.2026226929 0.6933775654 -0.2349499047 0.1824546229
H 4.7270513702 0.5307701035 0.9322184739 0.3129212688 0.0722397030 -0.3570380793
H 2.6100105967 -0.3262576966 1.5466658912 0.2106695981 0.5007693455 -0.2358762408
H 2.9214394309 -1.3350501423 0.1357970857 0.0215644373 0.7507454467 0.3341932972
H 1.4332069113 1.3238043008 0.1147475225 -0.3478650750 -0.7602168222 -0.5074555298
H 1.7107070481 0.2599572275 -1.3140627185 -0.2737294709 -0.0467587924 -0.5932463690
H 0.6779438511 -1.6544949492 0.0045999771 -0.3494726245 -0.1705509580 0.1988324447
H 0.4037616949 -0.4880630064 1.3645713987 -0.0702545369 0.1894050063 -0.2634210707
H 0.0950057266 -1.0219613029 -2.0341767803 -0.5694327327 0.4529162005 0.2838751417
H -1.4848697274 -0.2254173720 -2.3324178474 -0.1181286553 -0.2583386497 0.3688903776
H -1.3754918404 -1.8988249603 -1.5955196337 -0.0387757381 0.6903694103 0.0869435635
H -0.8153599807 1.6412687122 0.5354347430 0.5259491742 0.4674944814 0.6106899008
H -0.8862442641 1.5672154328 -1.3134795101 0.9491622258 -0.2843125861 0.4778653907
H -3.1551862180 2.0467457117 -0.1453433150 -0.1992606008 0.4015842619 -0.2785483881
H -3.0849789091 0.5515325130 -1.2258893950 -0.0896593226 0.9440886913 -0.2095319636
H -3.9332783252 -0.2860347185 0.9105369846 0.5648890124 0.2319344640 0.5141304223
H -2.6378294655 0.7152648347 1.7642841553 0.6336191745 -1.0720139214 -0.4325993671
H -2.3328538414 -1.7905006747 0.0922686558 0.7744557582 0.3189679007 0.1907232305
H -1.4233571063 -1.2402010658 1.5611283575 0.1912367342 0.1100965366 -0.2101318969
O -1.5704372608 2.4486052972 4.9445798675 -3.9542721496 8.1484072455 3.9907938953
S -1.0382608484 1.3395579377 4.1425800796 -1.4157336244 -4.4887221874 2.7418317497
O -0.3113757042 0.4060984910 5.1006776885 3.4995098147 -4.0756088825 2.8323980815
N -2.1087321424 0.4022492726 3.2548506039 2.4049444948 -1.6116174560 -3.6246713706
S -3.7520540538 0.5317595557 3.5544941320 1.6294435991 -3.4470765901 2.1120511734
O -4.1471108497 -0.0731397647 4.8724647933 -1.4701858631 -1.7348344380 6.8532941621
O -4.4240424558 -0.3187236680 2.4959063919 -4.5479777882 -3.7210026780 -3.3077853468
C -4.4645773595 2.1266051437 3.3510499831 -2.6164545702 6.0082631249 -0.7483460637
F -4.2960861631 2.5665191580 2.0564685823 0.3681178874 0.7036423584 -1.8793859814
F -5.8261325806 2.0134314572 3.5562843140 -1.4801692510 -0.1716174676 0.3618605267
F -3.9784752711 3.0892785886 4.1919686510 0.6164776711 1.3817222381 1.2081362137
C 0.2167969984 1.9493462737 3.0214142755 2.5750693988 1.3750526648 -4.9259720932
F 0.8966564551 0.8763515414 2.4301288524 1.1353908569 -0.3500315079 0.2825657110
F 1.0362094298 2.8729354885 3.5811482329 1.6053710248 0.7970281292 0.7775239376
F -0.4159274907 2.5910783618 1.9472014968 -0.5884829335 0.7784461802 -1.6138996716
45
energy=-60017.1757554246 config_type=IL_pair name=Pyr14-NTf2 Properties=species:S:1:pos:R:3:forces:R:3
C 4.0745120759 -0.4779879659 0.4935083813 -3.5837190795 -21.3988425033 2.5782286220
C 2.9277178513 0.0549891464 -0.3121674949 5.0467843223 -5.4377770916 4.2300908931
C 1.5864786279 -0.2370775657 0.3196131931 0.3913319248 -6.2487291452 5.3592635613
C 0.4821155733 0.3118763466 -0.5175973690 1.8308418558 -18.0612199338 -3.7210849784
N -0.8456420869 0.0775434442 0.0135517337 -8.6903307330 -10.6722302325 0.2930467027
C -0.8539422541 0.3529145690 1.4337237694 -0.5817461781 -0.4878966539 8.2626915475
C -1.7463118418 0.9635053665 -0.7013346925 -4.3552706126 2.4755372782 -2.2332369674
C -3.1109443889 0.3935463741 -0.3767830830 -2.6264864571 1.3477263520 -0.7769635387
C -2.8489080851 -1.0948487391 -0.4703571290 -2.5329662789 -1.5619985600 0.5383435794
C -1.3554584095 -1.2219341917 -0.3302006211 -0.4573667729 -5.3605145067 -2.1029428834
H 4.7332627481 -1.0485001779 -0.1946925199 -0.1664236472 -0.0340008540 0.3724084540
H 4.7029159535 0.3462061675 0.9222992285 3.2349979753 -15.9655116605 13.4996456065
H 3.7775645914 -1.2088004977 1.2809998465 -0.7238154773 -0.7765257225 -0.7827589232
H 3.0300549125 1.1620598817 -0.3744133917 5.1967660042 -1.5046116835 3.0083619785
H 2.9056383313 -0.3772736699 -1.3316922968 1.2773821696 -0.8679348664 -0.0328973451
H 1.4145287751 -1.3335909683 0.4117606598 0.2688469092 0.1940393393 0.5321704274
H 1.5712233316 0.1866530388 1.3393045085 0.0194416613 0.0708905354 -0.0605167181
H 0.5221631277 -0.1926289321 -1.5146425827 -1.2030063707 -0.1278409628 -0.4903128957
H 0.6144472492 1.3962791396 -0.6298983210 -19.6370646186 -30.2963222720 -17.5742007687
H -0.4215691606 -0.4971085606 1.9921626926 -0.7616839960 -0.2510087723 -0.0924355622
H -1.8201853912 0.6850554683 1.8268708043 -0.5588702504 -0.7249788433 -0.1835779088
H -0.1644184927 1.2291072236 1.5899858693 -1.3759239040 -1.7362480182 2.2827213087
H -1.6271110818 2.0195564921 -0.3879367589 -0.3120784176 -0.2294467707 -0.4821674625
H -1.6117503973 0.8011113388 -1.7843268738 0.6053018460 0.4726051151 -0.0278740605
H -3.4688151054 0.7143640673 0.6257731226 -0.0099055909 -0.0878387649 -0.5196662276
H -3.8582091214 0.6811534866 -1.1724199672 0.5492471051 0.1275173322 1.0403721834
H -3.4085517028 -1.6199342743 0.3261153673 0.1753788922 -0.1541726181 -0.2158597156
H -3.2147190287 -1.4624477148 -1.4449406168 0.2180803557 -0.2409555893 0.1951111967
H -0.9617278224 -1.4586484155 -1.3595902281 0.1666079496 0.1982009691 0.8447756654
H -1.0243587783 -2.0433256167 0.3273247692 0.0971116603 0.3231008176 0.2691031479
O 5.5734571653 4.6197780850 -0.3665758687 3.7203831056 4.9376717047 2.3099337040
S 4.5896735790 3.4692730822 -0.5396701318 -0.5080513990 3.4432756951 -3.5217259966
O 4.7440113669 3.1111945328 -2.0078045180 -0.0693256811 -3.1743068453 -6.0952029227
N 3.0676507464 4.0495635783 -0.3024768750 -2.5159065114 4.1591049889 -0.8268591517
S 1.8260132668 3.1784018033 0.3560846380 2.5997556794 4.1725262419 2.6310167737
O 0.6896411181 4.1607929205 0.6354648431 -4.9966927865 3.8202475192 -0.3283640717
O 2.1401921989 2.6040131764 1.7258490383 1.9495471360 -4.2423650631 5.5352341523
C 1.0659672455 1.9408649006 -0.6548048332 39.4717416146 43.1963835619 -17.5033986262
F 0.0634648846 1.3680639702 0.1389145840 -22.2526576678 16.4914149501 35.0558379839
F 0.5152916726 2.5111148471 -1.7735591409 -0.7184724953 4.0234462094 -3.5877444459
F 1.9344514716 0.9579512113 -1.0682017067 1.2684107710 9.7452356575 -20.4165477929
C 5.2162503000 2.1770908796 0.4266058769 7.2268108259 2.9564534054 4.0451295202
F 4.5529315743 0.9916405250 0.3954890797 3.1109762755 27.9365901901 -11.6223194754
F 5.4470621594 2.5826601840 1.7433058577 -0.4709547024 -0.1855995113 0.9433313648
F 6.4979050531 1.8861262668 -0.0548309251 0.6839099038 -0.2613836207 -0.6317856382
45
energy=-60028.9826809587 config_type=IL_pair name=Pyr14-NTf2 Properties=species:S:1:pos:R:3:forces:R:3
C 3.4388058018 0.0324957164 -1.2973044636 2.8583988751 -0.1151255412 -3.0191354780
C 2.9241091798 0.1175869446 0.0831494087 1.5535021976 0.2821831188 1.5269699885
C 1.5086876024 0.5636303393 0.2446403528 0.1069174866 1.6642743655 1.5392072217
C 0.4854521515 -0.2967645126 -0.4200791305 2.2638894777 -1.1152517034 -3.1425191182
N -0.8305868410 0.2684502751 -0.1705523251 -1.6617460273 4.7611066158 -5.4618254415
C -0.8110342403 1.7092510856 -0.0537362570 -1.9758198491 4.3459619904 -0.2711016149
C -1.3255930374 -0.2853235322 1.0471945140 -19.5937390176 35.5494331995 -19.8445279603
C -2.3493438319 -1.3323465111 0.7016323721 -9.8299720559 -3.3070383777 -8.2645379559
C -2.6463616902 -1.1619169585 -0.7522669767 -3.0806696678 -1.9783346498 -0.9735455502
C -1.7570035286 -0.0452550454 -1.2263497117 -2.6810249561 1.1647249960 -5.7065199394
H 2.8259882048 -0.5147468010 -2.0194107058 -0.4156737647 -0.0505993248 -0.0492738558
H 3.7260282952 1.0182944400 -1.7462909385 -0.5998545793 -0.4993794926 0.2901386896
H 4.4060323176 -0.5331788666 -1.2484728552 -0.5936154465 0.3226147483 -0.1345742605
H 3.1200406784 -0.8275278351 0.6298512557 -0.2647410039 0.3359202838 0.2511111628
H 3.5510004162 0.8775821328 0.6072894763 -0.2948440467 -0.4848686720 -0.0083766220
H 1.3806207984 1.5999581490 -0.1316859389 0.4921956200 -0.5312399242 0.0248451140
H 1.3005116521 0.6040586672 1.3348704173 0.0376182943 -0.1092956962 -0.0322445180
H 0.6217209030 -0.2731639652 -1.5354930645 0.2160810532 -0.3426989977 0.8552373596
H 0.4350589515 -1.3267257725 -0.0637606389 0.5401784766 -0.7999897431 0.0823030862
H -0.3296203991 2.0774618692 0.8727102299 0.0453088092 -0.1703146885 -0.3636153811
H -0.4052216152 2.1417439763 -0.9870020284 0.3319986505 0.3511702617 0.3502142507
H -1.9020530242 2.0013270469 -0.0304722203 1.0778744433 0.0651823018 0.2675420068
H -1.7981840229 0.4501696009 1.7413728633 -0.1407622379 1.0231516531 -1.3276151662
H -0.5345802798 -0.7886137593 1.6668926601 121.9719696385 75.6996352750 -1.3517881096
H -1.9343111231 -2.3687298717 0.8439824271 -2.8764361102 2.0412477851 -3.2911327142
H -3.2513512840 -1.2681087699 1.3468909289 0.4955123508 0.3565651394 -0.4756599441
H -2.4710411840 -2.0596763334 -1.3775730528 -0.0144622579 0.0098114200 0.3577511241
H -3.7309537545 -0.9273760937 -0.8417969054 0.5463580692 0.2678192524 -0.7547126973
H -2.4343856143 0.8168748835 -1.4691016346 0.8993996707 -0.2782030577 0.3313843093
H -1.2124314823 -0.2694304985 -2.1675393489 -0.2295065167 -0.1546625218 0.1919129258
O 3.2355724524 -0.6241406046 2.5725010956 0.4329452180 5.7179703222 -1.4610929847
S 3.1743663667 -2.1270071139 2.8159092490 -4.6053414067 2.0803854854 2.2378068815
O 3.2829714993 -2.4216001899 4.2834270821 1.0020481600 -2.1751905683 6.8764852800
N 1.7375814026 -2.7994708986 2.1366100776 -0.4905578535 -1.7247646894 -6.5438453974
S 0.3955523030 -2.6796443533 3.1892789614 4.9706342116 -4.3416906559 1.2068943932
O 0.5952105778 -1.7839200519 4.3543731323 0.4290477528 7.0434530919 5.9857818673
O 0.2121601918 -4.0808769459 3.7585701290 -1.5613633789 -5.9954699178 1.3575543604
C -1.1187899563 -2.3239825435 2.3229151982 -4.9475925496 -16.5577893143 10.7041407150
F -2.1837735258 -2.2324414572 3.1964118197 -0.7286645466 -0.0957587481 1.1793895653
F -0.9761075959 -1.1012165757 1.6979257808 -90.6510013860 -94.1159151473 30.8497771920
F -1.4439693496 -3.3377165585 1.4446883021 1.4035945136 -4.3962859736 0.3198453408
C 4.5790657205 -2.8297002025 2.0056268381 5.0089514050 -2.0275589352 -3.8246857977
F 5.7731984854 -2.3138820239 2.5235549445 0.2915301167 -0.1341943273 0.6715683554
F 4.5406597279 -4.1920751722 2.0839172165 0.4345741327 -1.8588925834 0.2300277860
F 4.6126107638 -2.4737010425 0.6605214148 -0.1889670716 0.2646151671 -1.3857404628
45
energy=-60075.1509335211 config_type=IL_pair name=Pyr14-NTf2 Properties=species:S:1:pos:R:3:forces:R:3
C 3.3934287289 0.4552730309 0.2870661829 2.1259354796 1.5517892662 0.4315130582
C 2.8800029161 -0.9627657527 0.2453875038 0.3481618099 -1.4272672842 1.6729590051
C 1.5550856361 -0.9652677875 -0.5074548289 0.3695042918 -2.3160250443 -0.7962441787
C 0.6249421789 -0.0690099527 0.2505821941 4.6777610306 0.1281546788 3.1859580089
N -0.6857343668 0.0478507380 -0.3231492915 0.3763336523 0.6254651419 0.5496431143
C -0.7694352117 -0.3571514695 -1.6921481302 -1.8172124574 -2.6904891536 -4.3738036170
C -1.6281867138 -0.7695785720 0.4251325305 -1.8350399377 -4.3174342834 1.5992219304
C -2.9429233606 -0.0370621858 0.4047856186 -2.9770530566 -0.2186119925 1.0031363554
C -2.6633343351 1.3383008244 -0.1229953682 -0.5190142557 2.1500339528 -1.0280842529
C -1.1545026422 1.3955301974 -0.0697975383 -0.4540814973 4.5660144593 1.6043960780
H 2.9661633411 0.9991010285 -0.5699281198 0.4938516068 0.4276194013 0.1012383173
H 4.5196407014 0.4443346446 0.2110609132 -1.0809586979 0.3592163311 0.0712179633
H 3.1159840594 0.9610410364 1.2479206260 0.2398710215 -0.1906542456 -0.7776486369
H 3.6146040954 -1.6534729346 -0.2047726771 -0.2354886049 0.0579029749 -0.1396404484
H 2.7261607170 -1.2810350263 1.3093196457 0.0208304960 -0.2941072019 -0.6948203346
H 1.1357243893 -1.9987562495 -0.5505234474 0.2854279277 0.4404242557 -0.1611983454
H 1.7493319346 -0.5921426006 -1.5221709406 -0.1101441540 -0.1006103386 -0.1641286568
H 1.1372995912 0.9140915400 0.3697900024 -0.8317845374 -0.2168701874 -0.3911843353
H 0.5323477681 -0.4805611951 1.2911397799 -0.0650708105 0.2712645719 -0.4837777743
H -0.6455535941 -1.4797997282 -1.6850777140 0.1951460386 1.1315957853 -0.4740166745
H -0.0347219381 0.1058275127 -2.3596670858 -0.0265954119 0.4032888794 -0.0369191125
H -1.8345483814 -0.1793781406 -1.9999629298 0.9560338203 0.1273519228 -0.2887561487
H -1.7418170118 -1.7587086135 -0.0703376232 0.3137023325 0.2586291015 0.2330464910
H -1.2371034934 -0.9825221528 1.4377407141 -0.2873791874 0.3537435082 0.1793383305
H -3.6793358361 -0.5713203401 -0.2264568343 -0.0110530034 0.1114432271 0.4437405932
H -3.3231171856 0.0776059448 1.4572660155 0.1227998708 -0.7296478483 -0.9965944672
H -3.0666677999 2.1281474820 0.5475869693 -0.0953586113 -0.1770739192 -0.6556953615
H -2.9822328342 1.4854837642 -1.1718831291 -0.3951613074 0.1761252359 0.3306694314
H -0.8585994581 1.6400285469 0.9755643605 0.0673073149 -0.1122037238 -0.3514684627
H -0.7029018948 2.1459164105 -0.7241987269 0.3693661535 0.0148938812 -0.4889380243
O 0.5865246961 -1.2310423785 5.9773603284 -0.8644423997 5.8524679411 4.8825461753
S 1.2250803352 -2.1656840473 4.9892530565 -5.2682838896 -1.2090952943 0.4721944469
O 1.3723177723 -3.4861730603 5.6715764817 2.2033769114 -7.4277241412 2.8265253792
N 0.1235635438 -2.3378584452 3.6650706833 1.2734701586 0.7597959766 -7.7670271972
S -1.4344053505 -2.4342533365 4.4212930118 5.5077458183 0.3475585440 3.2278381242
O -1.4733136383 -3.7853841937 5.0800623839 -1.3239752767 -6.8446553645 2.3954500810
O -1.5201173361 -1.3218143821 5.4389706964 -2.7353181161 5.4692948863 3.4814709876
C -2.7559100132 -2.3268725322 3.2444930331 -4.5674877177 -0.4324212166 -2.3095153255
F -3.9337383621 -2.4180064875 3.9923083887 -0.8531745640 -0.0907272439 0.0783636011
F -2.7900810979 -1.1206151950 2.6014275561 -0.3079173863 1.4892958727 -0.6989015865
F -2.6820302161 -3.3940036525 2.3987295490 -0.4233846767 -1.2188316152 -2.0597795508
C 2.7886440350 -1.5232288203 4.4452123127 4.1679361616 2.1171128112 -1.2666233935
F 2.5518346320 -0.2827756508 3.8714050607 0.6898208884 1.1108939268 -0.9764453986
F 3.3668703360 -2.4230630271 3.5934255944 1.5103030304 -0.5519644528 -1.5974648938
F 3.5710277126 -1.3695773210 5.5892321565 0.7739679780 0.2673713313 0.2083661240
45
energy=-60076.3753575900 config_type=IL_pair name=Pyr14-NTf2 Properties=species:S:1:pos:R:3:forces:R:3
C 3.7721203110 0.0532490299 0.2562029724 -0.5831638367 -0.2731972498 0.6482364154
C 2.3045930552 -0.0621399480 -0.1810779973 0.3409177404 -1.1324476762 -1.0567729186
C 1.5297455388 1.1534378109 0.2654737615 3.2870696545 1.3382958774 0.8228465227
C 0.1058815810 1.1416199418 -0.1132216171 1.5909262942 7.0686251385 -3.5377094810
N -0.7308664962 0.1037289152 0.3614869807 -0.5272980569 -1.6538355871 -0.1620195982
C -0.2990849008 -0.6230921679 1.5082503441 1.3492687295 -3.2162719987 6.8406820292
C -0.8973807932 -0.8881297062 -0.7124285144 -0.9937903851 -1.6856711375 -3.6692503505
C -2.3311671461 -1.3448999207 -0.5801728708 -0.9859410799 -0.6745314379 -0.5789534173
C -2.9946429946 0.0284782946 -0.4124045543 -0.2927046915 -0.6700954604 -1.2507980175
C -2.0598577633 0.6280671028 0.6147231766 -5.3085324906 2.8580937178 2.1505994611
H 4.3171818627 -0.7042014248 -0.3196865675 0.4070073476 0.0212782170 0.0258527089
H 3.7806603741 -0.1208104616 1.3411584459 0.6918797996 -0.1390900065 0.1170375022
H 4.1464862289 1.0601818608 0.0630025616 0.3301480466 0.1609232026 -0.2340179805
H 2.3034272991 -0.1766351362 -1.2959115680 0.0197573172 0.1603661936 -0.3114894581
H 1.8798628574 -0.9730283219 0.2550082626 0.0070513291 -0.2476059232 0.0627068585
H 1.7436519446 1.3041153643 1.3398354668 -0.6206356265 0.2228218160 0.1074549130
H 2.0365767485 2.0236826869 -0.2432340430 -0.9027333694 -0.4825232317 0.3173089586
H -0.3642222841 2.1364781955 0.1480636578 0.5302823532 -0.9076750401 0.1594249229
H 0.0768702378 1.1561938148 -1.2451313418 0.0724955912 -0.2419177469 0.9507399707
H -0.1226747471 -1.7136040618 1.3167871446 0.3752581230 0.9850486331 -0.1662031770
H 0.5504237670 -0.1671129901 2.0687119525 -0.1602362439 -0.2344607545 -0.8150101601
H -1.1306144538 -0.6254984312 2.2586816016 0.6514338861 -0.0658557147 -0.4122658374
H -0.1849021051 -1.7046319729 -0.6749287737 0.9068818623 -0.0758370669 -0.1178941240
H -0.8522493640 -0.3053816661 -1.6757831549 0.2987662853 -1.0004801352 -0.0658592533
H -2.6674569097 -1.8586570275 -1.4842049859 -0.0214846295 -0.1899128626 -0.2988346773
H -2.5060921789 -1.9986437371 0.2714166288 -0.0363722563 -0.3394179967 0.5093160325
H -4.0200527100 -0.0659923671 -0.0546717197 -0.4569000400 0.4666313326 -0.0555673502
H -2.8837329279 0.5352992637 -1.3878668249 -0.6863562132 0.2474829127 0.2028077828
H -2.0541002961 1.7419570076 0.6043766359 -0.0150946166 -0.5373196087 0.1750997809
H -2.4483837350 0.2659700523 1.6020534962 0.5648589032 0.6163287284 -0.4829088298
O 3.6643153482 -1.0041758277 -2.3620672626 0.9528483604 4.9249092092 6.6077368956
S 3.7294016771 -1.9038131008 -3.5455269380 -4.3680711021 -0.3371410677 -0.4525431083
O 3.2682494696 -3.2848101127 -3.1817878095 -1.6154420381 -7.0819312848 1.3862506576
N 2.7615202059 -1.3820012759 -4.8655642322 0.5158760348 -1.1401268214 -5.6116038821
S 1.4881032764 -0.3652858297 -4.3362455489 5.7303940067 0.1141976563 -0.6094936973
O 0.9969060538 0.5111106511 -5.4518628219 -2.9105843782 3.3238348779 -5.7878396254
O 2.0001398574 0.4880971283 -3.1961271340 0.9723415722 3.9937920745 5.9385115789
C 0.0716053013 -1.3038427051 -3.7714915678 -3.5212701953 -2.8725885157 -0.6307667071
F -0.3462035197 -2.0641919279 -4.8654079501 -0.6629031098 -0.9073418396 0.1039377838
F 0.3446487592 -2.0558633577 -2.6688546785 -0.1903625757 -1.5511183486 1.2939746345
F -0.9179481797 -0.3597829277 -3.5236802593 -1.6584796936 0.8005108294 1.2731039583
C 5.4094897792 -1.9275157802 -4.1406842524 4.4212416357 0.6707130241 -3.4828582988
F 5.5198022925 -2.8023709678 -5.2106378796 0.5250362573 -0.8942402118 -0.6963731158
F 5.6578891000 -0.6474019646 -4.6253889419 0.8124376322 0.9742341286 -0.2616953997
F 6.3069360353 -2.2495855186 -3.1590428903 1.1873983926 -0.3939058136 1.0454053453
45
energy=-60071.4780809765 config_type=IL_pair name=Pyr14-NTf2 Properties=species:S:1:pos:R:3:forces:R:3
C 3.3520505604 1.0064881610 0.0391343893 0.3177469451 -3.6741423965 -6.1825192647
C 2.9853309018 -0.3311765919 -0.6003707540 1.6111288228 0.6641025585 -1.7240324308
C 1.6783900241 -0.8010748260 0.0232573928 0.4826812873 -3.2517981958 -1.5685990617
C 0.6519945434 0.2362952161 -0.2653149686 3.7111083459 1.6702471624 -2.6025636349
N -0.6558420667 -0.0218719118 0.2414075879 0.1896577001 -0.4614888770 -0.5784310817
C -0.7033642591 -0.4233621939 1.6230641512 -1.3958529650 -1.4132645266 4.0159118963
C -1.3881334553 -1.0158709999 -0.5206640966 -1.4201449473 -4.7441907353 -0.6256051207
C -2.8325876551 -0.7234349398 -0.0984708890 -2.4200217722 -1.0636573640 -2.2282908238
C -2.8296416468 0.7166536799 0.3725815741 -2.8111138938 1.4541714194 -0.3714807544
C -1.4561623810 1.1633155390 -0.0344788381 -2.2138588610 0.7441447390 -1.1950381970
H 2.8901009741 1.8303842839 -0.5212673714 0.7630464257 -0.3060378480 -0.2573140283
H 2.9331080569 1.0240527106 1.0729714459 -1.2642265814 -3.9981335317 -7.6286207514
H 4.4511525001 1.0868758596 0.1180454685 -0.4373966460 0.4364558757 -0.3014728245
H 3.7863097377 -1.0748291661 -0.4527160584 -0.2057813637 -0.1349636709 0.0339428052
H 2.8971510805 -0.1382567365 -1.6880586840 -0.3401503457 -0.8848828371 -0.0280119220
H 1.8702746190 -1.0062412770 1.0761452655 -0.2822676064 -0.0688887081 0.4617615415
H 1.3746824681 -1.7385265558 -0.5254098221 0.1384728208 0.3282097158 0.9878512418
H 0.5587772244 0.2995447901 -1.3774342352 -0.0608743924 0.1953004262 0.5683769089
H 1.0152773606 1.2168260044 0.0967742270 -0.8015916829 0.3505052050 0.5428149636
H -0.1594977964 -1.3610811680 1.7212230011 0.6447045119 -0.1651883574 0.3439032004
H -1.7645663501 -0.6710649011 1.8509980865 0.7889443583 0.2273235100 0.1879604533
H -0.3869704578 0.3671768798 2.3178660433 0.5407339911 0.3981170989 -0.2383034485
H -1.2542415960 -0.9112077269 -1.6062149085 0.3927206660 0.1760839309 -0.0209026802
H -1.0905993045 -2.0397571834 -0.1721513845 0.0515300182 0.5014189452 -0.6646577969
H -3.4686111321 -0.7531672556 -1.0192535332 0.2311724814 -0.5347241289 0.6874487277
H -3.2205019870 -1.4389174276 0.6288944514 -0.1626487301 -0.2779106509 0.1379700275
H -3.0608446809 0.8478287972 1.4329271208 0.2418450941 -0.0682124064 0.1694647289
H -3.6042741013 1.3306368915 -0.1690382956 0.7050579502 -0.5753831701 0.4218156588
H -1.0944509840 2.0751644123 0.4361590793 0.3204079370 -2.2249377175 -1.1149808144
H -1.4743101971 1.2485976362 -1.1577693150 0.5853823662 0.2450231534 1.0441237839
O -0.4212129257 5.1582016758 0.8100522552 2.1387432653 7.1441671899 -0.1244539101
S -0.9418753353 3.7642054252 0.9872111094 4.6529635261 2.9962140910 0.1664175322
O -1.4262273750 3.3276620087 -0.3736360853 -3.2373430864 -0.1399949950 -6.5752976699
N 0.2356380290 2.6400384825 1.4971474588 0.4985015041 -4.8372237126 -0.9489125656
S 1.4421375061 3.3666701001 2.5047784765 -4.9519529233 -0.0153555474 0.9391816482
O 1.3675243067 2.7145267831 3.8608037144 0.1911436803 -3.6498192212 5.7360787287
O 1.2772035233 4.8465342440 2.5815048231 0.0314014749 7.6864386159 0.1393570886
C 3.0266103808 2.9474652282 1.8096850235 4.1616690641 0.5997583469 -1.1937419163
F 3.9872886318 3.5292802407 2.6166716528 1.0060970184 0.3210472984 0.0368029909
F 3.2096433313 1.5782822201 1.8961528974 2.5088135134 4.7749291203 14.9374017115
F 3.0985445863 3.3701142575 0.5180018931 0.7913441955 1.3389496559 -1.2171473755
C -2.3364101948 3.7789178257 2.1033564379 -3.1765625959 -0.7591689628 3.8644640689
F -2.9158114615 2.5261820413 2.1469020038 -1.1483896278 -0.9185214443 0.6810355965
F -1.8100241042 4.0329855386 3.3567894161 -0.1937494585 0.6592096436 1.3480134964
F -3.2697587651 4.6867679727 1.6966237700 -1.1797355760 1.2365332201 -0.0555674154
45
energy=-60074.5047482867 config_type=IL_pair name=Pyr14-NTf2 Properties=species:S:1:pos:R:3:forces:R:3
C 2.8682412777 0.4330527770 0.7435418968 2.4570626642 1.2752620129 0.1539296121
C 2.3318426457 -0.9023007042 0.3142774249 1.1030647650 1.1596146091 -3.3852195277
C 1.6952176839 -0.7915083007 -1.0534568709 3.0342672926 -1.4203904630 -1.2133901354
C 0.5663304180 0.1597643304 -1.1212816246 4.1220029116 3.6058633408 -4.5069016981
N -0.5605270472 -0.0741949793 -0.3003339732 -1.8583914421 1.4371698004 0.6830543778
C -0.8944026377 -1.4272441117 -0.0432639248 -1.5541370235 -5.5762955100 -1.0047355878
C -0.5595694581 0.7004164660 0.9484786918 0.4906258246 1.9631303750 3.0510501179
C -2.0416605997 0.8002159322 1.3286557673 -0.1428303787 0.7732837372 2.9352027266
C -2.8038174102 0.6445280270 0.0527661421 -3.4942027918 1.0308207194 -0.9060877158
C -1.7083040643 0.5675119980 -0.9629630108 -1.8966233226 2.1679083882 -3.3737793377
H 2.2749138262 0.9706934351 1.4804339031 -0.5098365004 0.2925058081 0.1650314614
H 2.9899115384 1.0541443344 -0.1791177712 0.3222061537 0.2184967990 0.9178231453
H 3.8775789909 0.2809082150 1.2258708050 -0.8872816822 0.4353977086 -0.5401627596
H 3.2197338597 -1.5835668883 0.1612753181 -1.1439692905 0.5051630113 0.1659992003
H 1.6859168281 -1.3737993984 1.0692982297 -0.7201096057 0.0502483999 -0.7552622273
H 1.4784862673 -1.8132336490 -1.3758655768 -0.6517495540 -0.1492789072 -0.4317373453
H 2.5216365447 -0.4453578987 -1.7355830700 -1.0999870945 0.1203321347 -0.0512641803
H 0.9474025883 1.1897522413 -0.8522031096 -0.2514652082 -0.9083015055 -0.1862616731
H 0.2482346517 0.2749645331 -2.1843435145 -0.2942990098 -0.3494048823 0.3951134393
H -0.4683005903 -2.0781657526 -0.8326673628 0.0546819972 0.2210129438 0.4398100100
H -0.6666289425 -1.7971053566 0.9867565111 0.3264619230 -0.0336531068 -0.8398995037
H -1.9926891466 -1.5505766834 -0.1331385419 0.4336548020 0.0699884411 0.0408259864
H -0.1948077093 1.7194365176 0.7024482552 0.3806252811 -0.4062922820 0.2652685252
H 0.0177051412 0.2066895754 1.7452025019 0.5004974312 0.0839337791 -0.1823233283
H -2.2790245271 0.0203806855 2.0784383442 -0.1783424455 0.3823917532 -0.0502827929
H -2.2326969096 1.8200651978 1.7322788354 0.1277033244 -0.6827245261 0.3903637383
H -3.4449044701 1.5510286054 -0.1574923180 0.6439364414 -0.8064683837 0.1287202426
H -3.5108046173 -0.2013285860 0.0357101478 0.2922676880 -0.1639591082 0.0389024947
H -1.3773882906 1.6139316422 -1.1757050055 -0.1645685056 -0.5895587445 -0.4239977257
H -1.9876258413 0.0308977953 -1.8865109846 0.2733135929 0.0612268815 -0.0865395328
O -0.6219066096 -5.8912312846 3.5227013784 -2.0575718377 -5.6233296227 -0.4307871953
S -0.2326480079 -4.4259465092 3.3944478649 4.7698586731 -3.3513296052 1.2100402139
O -0.0218705525 -3.8304012899 4.7379913393 0.5420720901 4.3003531692 7.2534738092
N 1.1254582298 -4.4009774125 2.3748437144 0.5713347300 -3.1372989536 -4.8326172621
S 2.3596971347 -3.3161252172 2.8237899145 -4.4717989470 -1.5700461457 1.3422651505
O 2.2241529793 -2.0866970667 1.9704073645 0.6887093381 2.9893546718 -0.4939880682
O 2.3472682771 -2.8936071637 4.2430573217 0.7444199386 1.7952927532 8.5649971085
C 3.9159604977 -4.1317799252 2.4439114285 4.1517895819 -2.3185204091 -2.1760440916
F 4.0513724681 -5.2968650637 3.1277157544 0.2963369797 -1.9118358997 1.3728215833
F 4.9800870893 -3.3053779620 2.7334942926 1.1221494284 0.9738438560 0.5484626795
F 3.9880075915 -4.4284802033 1.0991908268 0.1087118575 -0.3323184362 -1.7512267683
C -1.5620960582 -3.6412762408 2.5351898500 -3.9193400734 1.0354096293 -3.5548141068
F -1.7981423258 -4.3588769682 1.3685659990 -0.8423941100 -0.2499086607 -0.7771374444
F -2.6991809218 -3.5170945401 3.2899095648 -1.2517327177 0.5247942597 0.2547997121
F -1.0837747406 -2.4011618665 2.1340375255 -0.1830575420 2.0819779602 1.6356434872
45
energy=-60076.1312395838 config_type=IL_pair name=Pyr14-NTf2 Properties=species:S:1:pos:R:3:forces:R:3
C 3.3412564959 0.9434251899 -0.5269791683 1.1828881169 1.8693952483 -1.2155678940
C 2.9589431711 -0.3731672015 0.0733075065 2.3181161586 -2.0004550566 0.1195575568
C 1.5511966768 -0.4592119862 0.5373721934 -0.4492506290 -2.3819847373 1.2476270469
C 0.5333823127 -0.2392192594 -0.5594315096 2.0789920648 -0.9576330589 -1.8589088894
N -0.8003546304 -0.3546169722 0.0554901949 1.5574503238 -0.9283537046 -0.9775795477
C -0.8782018402 -1.5839460938 0.8236680148 -0.3514403812 -4.5437527818 1.6420340556
C -0.9852060586 0.8030553728 0.8659480360 0.8929224841 5.5335962479 4.5407742518
C -2.3327267841 1.3967186760 0.5359424605 -1.2830547144 1.2550314673 1.1258440679
C -3.0054049454 0.2542659504 -0.1759308991 -2.1279815893 0.1970549057 -0.5212769519
C -1.8359222059 -0.3104593537 -0.9610896532 -3.3075526671 -0.9689403563 -2.7949979354
H 3.4559176969 0.8041103880 -1.6253235878 0.1725888787 0.5126091629 0.6183474294
H 2.6090339631 1.7572920193 -0.3866394982 -0.0699109079 -0.2518739392 0.1078776616
H 4.3066485553 1.3230898368 -0.0966252512 -0.6827338625 -0.4059338413 -0.5874140885
H 3.6115549945 -0.5576322614 0.9467788721 -0.1884834606 -0.2141632481 0.0025462907
H 3.1763368102 -1.2111107813 -0.6482154767 -0.2356285887 0.6699877906 0.5466823359
H 1.3939971061 -1.5120278549 0.8869867437 0.3760896240 0.8176107141 -0.0491342317
H 1.3945612787 0.1734757671 1.4062413677 -0.1848591159 0.6742889035 0.2283373637
H 0.6012825947 0.7279045725 -1.0638793670 0.0779608888 0.4734665851 -0.3039526934
H 0.5531168301 -1.0601517643 -1.3044938948 0.4779267528 0.2388103711 -0.1206220774
H -0.3421021117 -2.3900476922 0.2733559918 -0.2138390008 0.3365672495 0.1430881508
H -0.4205915600 -1.4896925015 1.8206367285 -0.1341681647 0.1842027221 -0.0936046421
H -1.9122249501 -1.9470430910 0.9361789651 -0.1847470087 0.4540583705 0.0704270538
H -0.2317467287 1.6008751612 0.6638436879 0.0612147645 -0.7448995398 -0.0909931429
H -0.8671464271 0.5581147809 1.9489518647 -0.2601340761 -0.0545467374 -0.5947363548
H -2.8166716786 1.6761129098 1.4923164869 -0.2282400976 0.3350997252 -0.5714325502
H -2.2644308208 2.2317504757 -0.1840036930 0.3146378117 0.3155022547 0.1366940548
H -3.3748405176 -0.4632539212 0.5634814542 -0.4561343756 -0.3551965012 -0.1797879606
H -3.8095660834 0.6266991058 -0.8398760434 0.0234022420 -0.4712763904 0.1925180756
H -2.0674461574 -1.3232550549 -1.3462677045 0.5152587554 0.1866227402 -0.2566797199
H -1.5426449860 0.3979455832 -1.7478565027 0.1692253609 0.0768712905 -0.3709649258
O -0.5372064472 3.3881559557 -4.8317027541 -3.0801464688 -4.5596554464 -5.4091272556
S -0.0692727680 4.0527987639 -3.5671362876 5.8062374240 1.0052254550 -3.1741485443
O 0.1490822602 5.5074616701 -3.9259170404 0.6418669321 6.8995078864 -0.2215986875
N 1.3395463698 3.2963094469 -2.9756474954 -0.0789693557 -5.8615708874 4.5501985197
S 2.7917361815 4.0471950080 -3.5139901356 -5.2416177427 3.1259725064 0.1265392829
O 3.2044723901 5.1574677997 -2.5761264942 2.5318387521 4.1161456607 5.1530006913
O 2.5767222262 4.6667802624 -4.8692086790 -0.4854660389 1.7935290258 -7.1110150885
C 4.1453918399 2.8862889594 -3.5495231871 3.1759981300 -3.2652983798 -0.1768783397
F 4.3348290451 2.4027220458 -2.2876303184 1.0640050908 -0.7704469282 1.6966016847
F 3.9361820487 1.8533463285 -4.4114701522 -0.0732017955 -2.0081002697 -1.4085705955
F 5.2570665273 3.5845670052 -3.9488377837 1.6145472493 0.7208469972 -0.4493817227
C -1.4087563469 3.9946103807 -2.4016682300 -3.3684353905 -0.0237774413 4.2576474527
F -1.0458529489 4.6422051002 -1.2190821657 -0.5589855115 0.2725736371 0.8041377077
F -1.7269035574 2.6768486404 -2.1209306851 -0.8733935420 -1.9184481965 1.1837815570
F -2.5189331541 4.5681536216 -2.9914990283 -0.9374859698 0.6388990634 0.0401165029
45
energy=-60018.2155760868 config_type=IL_pair name=Pyr14-NTf2 Properties=species:S:1:pos:R:3:forces:R:3
C 3.4905418366 0.8391104652 -0.2417416096 19.3382374963 7.4601291592 -12.1014758073
C 3.0326063340 -0.6139711358 -0.2702761738 10.2846492805 -16.8209036709 -8.8314184725
C 1.6632565659 -0.7789360199 0.3281526143 -1.2302574248 -23.1205360655 -11.4735721946
C 0.6662629972 0.0273759665 -0.4271409284 -3.5148411507 -1.7098484422 -4.5193401183
N -0.6883163789 -0.0436442157 0.0463396826 -2.8986621239 -0.2142204204 -1.0934461807
C -0.8533192308 -0.4318440805 1.4080065955 -2.2844117978 -2.9753340082 5.5448402189
C -1.5124210767 -0.8401272361 -0.8518515299 -2.4054551510 -2.5160962235 -1.9277861286
C -2.9261867824 -0.4659383505 -0.4172536926 -2.7812939782 -0.8822936847 -2.5155823271
C -2.7868319318 0.8912935084 0.2367690687 -2.1371254626 1.2718630058 0.5420339049
C -1.3680416502 1.2531939786 -0.1131252018 -0.9088715621 3.0176553849 -0.9650849242
H 2.8909689674 1.4954397186 -0.8716070657 4.5566941324 6.0268156204 -4.5029135965
H 3.3755629573 1.1719607371 0.8254086891 5.4875256328 7.9743094573 -8.5885964444
H 4.5821393316 0.8724861645 -0.4376062298 -0.3001112758 0.8190023457 -1.5048292209
H 3.7935782791 -1.1616822882 0.3533791148 -1.2591908676 -3.3147523342 -4.7079170317
H 3.1269404006 -1.0367179374 -1.2917142746 -0.2926696093 0.8871322016 0.0505094652
H 1.4155539830 -1.8486573785 0.2445108592 -0.9875687289 -0.8640158707 0.8197121217
H 1.7244503345 -0.4193672065 1.3753438231 12.7495477236 -30.8514353528 -22.1488037969
H 0.6755005181 -0.3384130473 -1.4897909033 -0.2871026601 0.6091827613 0.4296165492
H 0.9287168974 1.1010464920 -0.4761720859 -5.4174211779 0.8702698598 0.0925819163
H -0.8733369776 0.4344254792 2.0926911069 0.3154778719 -0.0618406509 -0.2108101420
H -1.8578434082 -0.9287642111 1.5072345768 1.0063866051 0.3907218730 0.1280833909
H -0.1268250611 -1.1740410571 1.7880903262 -0.0766075337 0.1766977056 -0.6521480182
H -1.3603949765 -0.4548461912 -1.8863257368 0.3850229767 -0.6059352551 0.4121761202
H -1.3327461928 -1.9199280397 -0.7523530890 0.5088007110 -0.1030240457 -0.1942672044
H -3.5478797620 -0.3427976951 -1.3497530379 0.3155369545 -0.4594475601 0.8581833859
H -3.4068202982 -1.2228054670 0.2111554383 -0.1080325882 -0.1051223866 0.1299806045
H -2.9428639481 0.7890479460 1.3085871957 -0.0555922171 0.4611152826 0.4535713818
H -3.5296811480 1.6109551200 -0.1496522679 0.2452525502 0.0329956764 0.0603526137
H -1.3243825225 1.4906994604 -1.1985400638 0.3095722685 0.4002712961 0.4440237149
H -0.9281880569 2.0454465215 0.4992347996 0.3991763167 0.1846157785 0.1617911084
O 6.5982907174 -0.3909319726 2.7220269410 0.2130422278 -0.9118374884 7.8080255480
S 6.6886829616 -0.0118694399 1.2696267304 -2.2311369265 -2.6661953427 1.7088910245
O 6.7887577261 -1.3228144135 0.5026395526 0.8743150668 -4.7780865939 -4.3723488354
N 5.2557207992 0.7968684012 0.7412437067 3.5330404247 4.5547167367 -0.6403687109
S 3.9486428953 0.0702551698 1.5961807951 10.3847755408 -3.6712947921 12.8122215181
O 4.1190723935 0.4119371417 3.0536437439 0.1676097884 2.0932581319 6.3676460905
O 3.9682072303 -1.4276156789 1.5131048098 2.1071712371 -9.2050596525 5.1844335224
C 2.3632447462 0.7135943511 1.0663618967 -7.2554183725 7.6398758177 9.7980670177
F 1.4326479387 0.0208915670 1.8546227439 -22.7614963634 32.7079012865 45.1648904671
F 2.1609933330 0.5508339281 -0.2690818885 -17.6619065307 20.6795412160 -8.1586535885
F 2.2355705430 2.0360260867 1.3945486939 -2.7878707061 2.9169325847 2.0929202867
C 8.1612418532 0.9041243923 0.9158625528 4.6813706396 2.3649181722 -1.6777533850
F 9.2145922232 0.1213265106 1.4009296472 0.7305792737 0.0971956818 0.2076743139
F 8.2753862598 0.9981041019 -0.4615501894 0.5443314979 0.4215919580 -1.1688829457
F 8.1693483778 2.1456130161 1.4805515235 0.5048780993 1.7818135109 0.6855749513
45
energy=-60073.9584940285 config_type=IL_pair name=Pyr14-NTf2 Properties=species:S:1:pos:R:3:forces:R:3
C 3.2994329124 -0.2903174691 0.8660624228 0.7846910797 -1.1443725243 1.6209604945
C 2.9606620299 0.5546132000 -0.3413786963 0.8086137074 1.3482677769 -0.3319672189
C 1.5354570526 0.2384630895 -0.8093481290 1.4162525734 1.0910811309 -2.3543199015
C 0.5963694271 0.5507014048 0.3170281708 5.9871581189 -1.4436563787 1.9752084335
N -0.7751536117 0.3105983570 0.0438462541 -0.8835475670 0.0225921525 1.1543763871
C -1.5575897449 1.4375159461 0.5202909349 -7.3871037302 0.0912610401 2.9300741197
C -1.2736981618 -0.8428297619 0.7859462410 -1.6672054627 -2.8085105007 4.1899111672
C -2.4811721242 -1.3465617663 0.0293038831 -2.2611616946 -0.6195858722 0.9149498815
C -2.2003882884 -0.9553621004 -1.3878221913 -1.1157867431 -2.6677878275 -2.8464551091
C -1.1234431998 0.0931931340 -1.3326465575 -1.5064640021 -0.0158262931 -6.3430307775
H 4.3722785570 -0.5959557313 0.8709586655 -0.6670520985 -0.0629739515 0.0231115406
H 2.6256829838 -1.1805385718 0.9195574965 0.8695539158 0.2464261101 -0.0247966011
H 3.1270635032 0.2985870417 1.7769601136 0.0419063997 -0.1463735647 0.2332776629
H 3.7031558634 0.3596890620 -1.1441346246 -0.4409821833 0.2561340689 0.0223846576
H 3.0049777120 1.6398373872 -0.0456338708 0.1934377653 -0.7449707732 -0.5397206842
H 1.3709280206 0.9279705968 -1.6754215562 -0.3891284789 -0.5142648915 0.3915289780
H 1.5378637191 -0.7877788812 -1.1687444387 -0.3464160905 -0.6512317668 -0.1095281304
H 0.9107094780 -0.0776149871 1.1938065152 -0.5987387498 0.6309621928 -0.5713401590
H 0.7599716541 1.6076332109 0.5914646013 -1.0763517880 1.2281304835 0.4855341368
H -2.6083203184 1.2430383433 0.1858272539 0.5018448433 0.4717214216 -0.0535419134
H -1.6219191428 1.4523666123 1.6401414027 0.6764146688 -0.0867175599 -0.7545539630
H -1.1805275409 2.4025617771 0.1333460326 -4.7472266887 -6.6406166983 2.8498674520
H -1.6510538811 -0.5120311221 1.7950952419 0.9556368350 -0.1584687631 -0.6329994507
H -0.4997620647 -1.6019573779 0.9572727031 0.2936901056 -0.1727651614 -0.4267632951
H -3.4089798681 -0.8170888773 0.3435987130 0.4629398624 -0.3725601503 0.3445849747
H -2.6328432994 -2.4286143119 0.1719755361 -0.0029540764 0.0727446248 0.0050937998
H -3.1209618782 -0.6211258826 -1.9402537114 0.7918808103 -0.1448942565 0.4968235914
H -1.8146789135 -1.8694074959 -1.9151283048 -0.2999027218 0.7418069404 0.0363234636
H -0.2953312952 -0.2055224326 -1.9900774018 0.1745036027 0.0829045718 0.5709900649
H -1.5587295802 1.0159376068 -1.7933145013 0.7321517085 0.0907438000 0.7638488627
O -0.0460070121 2.9500643109 0.9039297042 6.4498321683 0.7887752026 8.7017690367
S -0.3842023120 3.5147014205 -0.4410589947 -1.8790748943 8.4494328450 -3.5381488588
O -0.6866334195 2.4575431736 -1.4610950403 0.6286915069 -4.0699798527 -7.2143308538
N -1.8169301614 4.4875463203 -0.2285031313 0.8875830323 4.5979891101 4.0700566951
S -3.0660485194 3.9900578349 -1.3073252939 3.7802868700 -1.9214363598 0.2980158234
O -3.4517582383 2.5847860939 -0.9440649065 -3.2027466326 -6.4835640543 1.9081775891
O -2.6698784581 4.0507584653 -2.7403038135 1.8809155123 1.3066997045 -7.8868106754
C -4.4537874379 5.0813377123 -0.9730843140 -2.9678768102 2.4263998980 2.9738819189
F -5.4589271205 4.7115966912 -1.8127173948 -1.5867303656 0.1558382863 -1.5476873263
F -4.0852482955 6.3894837441 -1.0442283524 -0.1208613742 2.0426205777 -0.4764319268
F -4.8789821446 4.8050898095 0.3228763732 -0.5800368148 0.0858576651 1.1173962345
C 0.8727361441 4.6175756020 -1.0435318798 2.9827033400 4.3861039551 -1.4005011205
F 0.4207013617 5.1448159820 -2.2379959384 0.1228391136 0.1190346067 -1.2983470700
F 1.0493349479 5.6862523901 -0.1885857806 0.3138023415 1.0123971219 0.9940433491
F 2.0543732525 3.9475448689 -1.1449139800 1.9849915579 -0.8818746002 -0.6916535539
45
energy=-60016.0628533034 config_type=IL_pair name=Pyr14-NTf2 Properties=species:S:1:pos:R:3:forces:R:3
C 3.9759612197 -0.3179719113 -0.8317322884 2.6747961366 1.1213821053 -0.3962052131
C 2.8836413867 -0.3372366502 0.1888549366 -0.5935993844 0.2926754156 1.9831890484
C 1.5210301010 0.0093309585 -0.4152360317 3.6021491684 -3.4555103264 4.8350687990
C 0.5320764383 -0.0509892003 0.7257421596 5.5864599148 0.0586175067 2.2869440560
N -0.8156344818 0.2441076011 0.3696726337 0.7355915720 0.6000142923 -0.5269644071
C -1.1332022268 1.6161537316 0.7090098190 0.0350957271 5.4774683651 1.9251808003
C -1.1712361437 0.0032844864 -0.9973576051 2.2933892842 -0.7442412346 0.6955245307
C -2.7000775025 0.0098492810 -0.9044415320 0.8245476147 18.1270654994 56.2330436519
C -2.9260955624 -0.8566442592 0.3072598879 -1.3185510940 -0.1648009148 3.8250678523
C -1.6861370319 -0.6455907568 1.1342300404 -2.9752410256 -4.0737341068 4.9367163034
H 4.9196108048 -0.0715049596 -0.2671773005 -0.4424583412 -0.4218082524 -0.8695792104
H 3.8045745031 0.5108684711 -1.5615167912 0.3316225938 -0.6788702029 0.2375247548
H 4.1026971090 -1.2885158970 -1.3404055186 -0.0129100253 0.2851603967 -0.1237777499
H 2.8503441394 -1.3103937325 0.6686018659 0.0210097558 -0.6799976346 0.4378085132
H 3.1006612427 0.4037490031 0.9907170984 0.0429967435 -0.2348184167 -0.2585557269
H 1.5436212348 0.9692146974 -0.9277834646 2.6696427958 0.3793940720 2.8772893311
H 1.2610395178 -0.7794346469 -1.1663863216 0.9764396683 -0.0731747850 2.2600839915
H 0.6083657607 -1.0308811539 1.2126485812 -0.2042781792 -0.2807409512 -0.0767636326
H 0.8639838176 0.6939888400 1.4798826493 -0.2500031065 -0.4229332774 0.0988228371
H -1.5247830828 2.2032085578 -0.1359050771 -0.3301025100 -0.2916662585 0.0063161125
H -0.2219471356 2.1786073365 1.0498778447 -0.4928558340 -0.5956393583 -0.3990622347
H -1.8146801556 1.6349681842 1.5852328162 -0.0875260498 0.1958568571 -0.6263312191
H -0.8934285353 -0.9876305620 -1.3555936870 0.9337675498 -0.4422363843 -0.0356310519
H -0.8603487666 0.7739366502 -1.6979361876 -1.8776591046 0.1299273700 0.0486651025
H -3.1776281641 -0.3947906589 -1.8237475159 -173.3481599543 -21.1994297246 13.0914554016
H -3.0951334550 1.0180509662 -0.6909877761 0.1282137513 -0.2307108166 -0.8161675421
H -3.8000744540 -0.5299805264 0.9071621302 0.0390774513 -0.1578497033 -0.5084388659
H -3.0788945762 -1.9236304280 0.0657011573 0.1984364154 -0.0714406996 -0.2811052480
H -1.8920974297 -0.1246609857 2.0915493356 0.1983373694 -0.7286704812 -0.0515065548
H -1.1762085716 -1.6194624367 1.3068723018 0.2099888095 0.6332221902 0.0570210261
O -3.4655150295 1.5040035744 -5.1870059883 -2.5937034839 5.4841082370 -2.5813077148
S -2.7100817393 0.4345501867 -4.4127856138 1.8821485235 1.0788174277 -2.5315645602
O -3.1033385166 -0.8616717528 -5.0406221536 -1.7214669751 -7.7088493458 -2.0549396034
N -1.0511924045 0.8109723475 -4.5451225416 2.1842598454 4.8905548122 -0.0965868815
S 0.0046246831 -0.4450628409 -4.0632079284 -3.0449541642 0.5446250540 -5.1308051347
O -0.7420427403 -1.6118207953 -3.5356069239 -4.6311187226 -6.5876653217 5.0265886543
O 0.8506082878 -0.9095433046 -5.2314798176 4.2791823669 -1.0556826933 -4.5515306189
C 1.1680876971 0.2237142505 -2.8858542077 4.3731971100 2.8144444080 0.1488566876
F 1.8391560664 1.2359846682 -3.5601770041 0.3895431588 1.0108218344 0.2662042093
F 2.1328832631 -0.6957478632 -2.5302541295 0.9459156919 -1.2514970640 -1.1278098241
F 0.5159294622 0.7324112687 -1.7672858605 -1.7099188581 5.6798780582 -8.1317283470
C -3.2924716428 0.5438077177 -2.7304271938 -15.7697197117 21.6211245027 -17.4782145792
F -4.6505372823 0.2200146102 -2.7279784515 -3.1922713299 -0.2611235094 -1.0049772537
F -2.6753842205 -0.3485778801 -1.8945422039 178.9578159534 -21.3969049701 -51.5355251680
F -3.2089593993 1.8558190366 -2.3024358108 0.0783557102 2.7826263020 -0.0656989673
45
energy=-60076.4109994912 config_type=IL_pair name=Pyr14-NTf2 Properties=species:S:1:pos:R:3:forces:R:3
C 3.6874332910 0.5754083102 0.6571180795 1.3901805522 0.1134386047 -0.0863842003
C 2.2711231560 0.6405946665 0.0954579268 0.7486587848 1.7356138387 0.3083235983
C 1.7783597451 -0.7402385994 -0.2581647918 3.6533235366 -0.6728962076 0.0610800668
C 0.4173878852 -0.8174106274 -0.8180704562 2.3578635561 -3.1303989080 -5.1215067717
N -0.6702105405 -0.3502531837 -0.0361602174 -2.0322638762 1.1524031506 -1.2177369599
C -0.5575699421 -0.4772896821 1.3749758085 0.9626817206 -1.5833396020 6.1454006472
C -1.9088262995 -1.0558116080 -0.4240629745 -1.9973912410 -2.2638049587 -0.3458287395
C -3.0105303116 -0.1819267139 0.1475504362 -2.8314813117 -0.6011922070 -0.6114285689
C -2.4239796594 1.2092974112 0.2398109534 -0.3319595559 1.5317486161 0.2306147286
C -1.0767674635 1.0025789791 -0.4405285952 -2.0233405570 3.1046901467 -1.6085796992
H 4.1790560647 1.5715097512 0.5552621896 -0.2653419162 -0.5261355250 0.2187511002
H 4.2475428373 -0.1410224570 0.0217869328 0.3210297420 0.1134166151 0.6842454909
H 3.6821421746 0.2919599276 1.7290518320 0.2865111958 -0.2041710846 -0.4340675794
H 1.6781969341 1.1299471979 0.8933976802 -0.3190553462 0.0473057519 -0.7920715271
H 2.3469014484 1.2984083518 -0.8082731907 -0.7701600451 -0.3733165592 0.6844860935
H 1.9800029441 -1.3741580646 0.6129660430 -0.5409212083 -0.5188279903 0.1442624107
H 2.5013224998 -1.1145989877 -1.0443194931 -0.9845878820 0.0551319186 0.4989074383
H 0.2225984184 -1.8896598453 -1.0753013426 -0.0750802985 0.3935746311 0.2301929395
H 0.3982682647 -0.2766237394 -1.8056875165 -0.0866311796 -0.2255325637 0.8077818671
H -1.4945563855 -0.8941452342 1.7905731438 0.2466913448 0.3053721382 -0.0581801959
H 0.2203934395 -1.2417853140 1.6210507549 -0.2466274086 0.7711784655 -0.0611693416
H -0.3819571922 0.4791930891 1.9046509405 0.4340356911 -0.0164395187 -0.3641108677
H -1.8616609451 -2.0049519306 0.1051135267 -0.1701523106 -1.1055820298 -0.5622871703
H -1.9775234657 -1.1131443834 -1.5263726678 0.2485590643 -0.3903154272 0.2065583752
H -3.8444547352 -0.2013412046 -0.5768954696 -0.0811954882 -0.0148102866 0.2540159501
H -3.3995781790 -0.5563731886 1.0934849342 -0.1223746850 -0.2014749448 0.3929055161
H -2.3090552020 1.5785760129 1.2726560619 -0.0393409769 0.0892555818 0.0286350547
H -3.0295335412 1.9507186163 -0.3206824127 0.2233233534 0.0185999555 0.3215736232
H -1.3060279671 0.9266583800 -1.5321855528 0.8196627996 0.3872980454 0.4812673312
H -0.3584972733 1.7758840704 -0.1779098609 2.3820083971 1.0833541286 -0.5499709475
O 1.0914085971 2.7912360607 -0.3398488204 3.0593477604 -4.8400434167 -5.2984355632
S 0.3414579895 3.8200743117 0.4488169444 -5.2242211797 0.9007763615 0.5750441979
O 0.0778296113 3.3265859813 1.8395829102 0.8947342034 -2.9149529758 6.8681326640
N -1.1903135455 4.1781755678 -0.2667645510 -1.2545088651 -1.2826348431 -6.0839996182
S -2.1739287095 4.7987730405 1.0124365844 4.8165885913 1.5579533237 -0.6838378630
O -1.7811885786 6.2535058383 1.1959985679 0.7816028395 6.4274954873 0.1969006734
O -1.9165643639 4.0636136257 2.2670143417 -0.9819227005 -4.9375066554 7.7695126822
C -3.8906335753 4.7963922271 0.5722181388 -4.5533999170 0.5432798954 -3.5732380415
F -4.3519256686 3.5381231168 0.2883133002 -1.4042013787 -1.8824863908 0.0591711889
F -4.0021959465 5.5303279952 -0.6102523663 -0.5497971320 0.6767355970 -0.8917786643
F -4.5775971078 5.4536619949 1.5526493354 -1.3561979523 0.2869592092 1.2560655572
C 1.3341503674 5.2852683165 0.5082597460 3.6884820113 4.4892363584 1.1346945180
F 2.5609316856 4.9538950799 1.0918298605 1.1539218527 -0.2574801106 0.0879199988
F 1.5284181363 5.7590847593 -0.7539286425 0.5365924364 1.0081119427 -1.9157889062
F 0.8081594485 6.2682668591 1.3118451639 -0.7441320249 1.1513671463 0.6282316013
45
energy=-60074.0125646840 config_type=IL_pair name=Pyr14-NTf2 Properties=species:S:1:pos:R:3:forces:R:3
C 3.7547444840 -0.4074810551 0.6459848093 0.9146310161 -0.8226375016 1.5026036269
C 2.6277188831 -0.3070135401 -0.3902251388 0.9622343221 -0.2085149514 -0.0449198742
C 1.3390136503 0.1171637074 0.3294085833 1.0590336805 0.9030737968 0.0684722695
C 0.2763145954 0.2002460535 -0.7177262972 5.0018619678 -1.9376381666 -3.7785819546
N -1.0164787535 0.5815558491 -0.2686291845 -1.8438727226 3.0045463094 -2.5702641536
C -1.1194711189 2.0310741087 -0.3911978640 -2.6090048692 -0.7564541520 -9.9905688879
C -1.3815810770 0.2409758896 1.0575412401 -3.3309241224 0.1922551825 5.9250966893
C -1.9980235188 -1.1359288978 1.0260692930 -0.4823250940 -1.8784946440 1.6404314295
C -2.1347028141 -1.4407279391 -0.4434003632 -1.4103762211 -2.4794161506 -1.0882108767
C -1.9923466596 -0.0947683999 -1.1225474398 -2.1701073991 -2.5731448295 -2.8856505373
H 4.4818678662 0.4159231716 0.5513774230 -0.1950397150 -0.1082962421 -0.1858087388
H 4.2665588206 -1.3844237603 0.5821040269 0.0091561150 0.1435994784 0.0743454886
H 3.3260995079 -0.3022499527 1.6648568617 0.3187518547 -0.2601759639 -0.2836895089
H 2.9385698329 0.4960872436 -1.0897708743 -0.4524160005 -0.4367069056 -0.1926971627
H 2.5196905035 -1.2945234755 -0.8746307552 -0.2364130733 0.3217564675 -0.3684747286
H 1.0749396906 -0.5792486041 1.1248357419 0.1274976054 -0.1193879796 0.4455808142
H 1.5419699357 1.1525148186 0.6705731267 -0.1478622440 -0.3194478913 0.6373098244
H 0.2462883518 -0.7733623291 -1.2754860445 -0.3008313528 0.4446706144 0.6322911363
H 0.6678468835 0.9312401658 -1.4849314376 -0.8528284991 -0.3922213539 0.6619023970
H -2.1009895229 2.3992096554 -0.0699876160 0.0131259214 -0.3917484671 -0.5057435665
H -0.3866096473 2.4332441845 0.3526762038 -0.0720201946 -2.8245323670 -2.9296203523
H -0.7824810457 2.3628482131 -1.3776822167 -1.1292583067 -0.5491632774 -0.7212734314
H -2.2067773136 0.9437520965 1.3735831890 0.9824473829 -0.2667185942 -0.3533854468
H -0.6197392066 0.3130006715 1.8262082348 0.8536860731 0.4424285456 -0.0700855596
H -1.3318445046 -1.8433216491 1.5653817310 -0.5788039783 -0.0668783840 -0.2643844740
H -3.0142510879 -1.1647681742 1.4519579678 0.3439705861 0.1813599808 0.6016466448
H -3.1149712095 -1.9162489298 -0.7074313729 0.7438010519 0.2019584423 0.2262674616
H -1.3321625261 -2.1284246126 -0.7235041218 0.1228477537 -0.1603889580 -0.5315250158
H -1.5714636321 -0.2832983631 -2.1320664844 -0.3392342415 0.9074222002 0.0701267506
H -2.9577293673 0.4369538538 -1.1533412215 0.1956437418 0.3099275548 -0.0079421500
O 0.7668830969 4.5575052259 2.3988195425 1.8393847732 3.6701898723 6.6768798847
S 0.3628685079 4.0457692706 1.0545782910 6.4915454542 2.2082667854 1.9135694835
O -0.4755325578 2.8131943081 1.2824015664 -1.6326565927 -0.5178990615 13.1804611591
N 1.6915736950 3.6328698216 0.0755291243 -1.2962662891 0.0457153249 -6.1855198881
S 3.1578878491 3.3780490836 0.9089386951 -3.3306787460 -2.1378717109 1.6979866407
O 3.7941097470 2.1347597567 0.3060594069 2.7747498432 -3.9045931943 -4.0558336838
O 2.9440516256 3.0443337413 2.3722720708 -0.8796822309 -0.3895947600 6.5290758760
C 4.3357386635 4.6860081978 0.6914902516 3.5088017926 4.5286355615 0.1687175755
F 5.4832180801 4.3800539903 1.4061189795 1.1052802087 -0.4421955695 0.3402023056
F 3.8885645355 5.8880294846 1.1981354238 -0.5558548635 1.4963772142 0.1696416059
F 4.6155335832 4.7867792478 -0.6372878725 0.7445996358 0.5278661683 -2.0368984439
C -0.7220153586 5.2181720361 0.2320468492 -2.9250808513 2.8349421760 -3.6753466916
F -0.0603830782 6.3899501838 -0.0790137029 0.1731085918 0.9991549008 0.1393138392
F -1.0959756470 4.6161841806 -0.9615205253 -0.6711343342 -0.0388604819 -1.2745542001
F -1.8580588745 5.4294133919 0.9807526540 -0.8620253883 0.6132540904 0.6884793665
45
energy=-60076.9676222833 config_type=IL_pair name=Pyr14-NTf2 Properties=species:S:1:pos:R:3:forces:R:3
C 3.4234592574 0.4843687398 0.6965033109 2.8288532754 2.8827101748 0.7483178102
C 2.9825600177 -0.6806479659 -0.1352988133 0.1068803659 -0.4213152122 -2.4457619318
C 1.4785757391 -0.9426083550 -0.0383763452 0.9999681687 -2.5103533961 1.8665344870
C 0.6923444371 0.2312275444 -0.4969179513 5.3416536679 1.3781924839 -3.0553417375
N -0.7287527288 0.0707746442 -0.4391406130 -0.5894618108 1.3867688350 -0.0610817646
C -1.3452914011 -0.1941934652 -1.7197123158 -2.7189017993 -0.5913377602 -3.0129469096
C -1.1922324127 -0.8922691111 0.5290452631 -1.1422145055 -2.5768163127 2.9662788357
C -2.6405113676 -0.4762470791 0.7695695149 -2.0617007914 -2.5591115279 1.4462942552
C -2.7182254805 0.9961001421 0.4569740229 -1.2069566447 1.5374701467 -0.0621910637
C -1.2735441294 1.3057002904 0.1280074751 -0.4355705544 3.5204169151 2.2207345427
H 4.2804989302 0.1973592988 1.3707054852 -0.9296118379 -0.5330552215 -0.2857436461
H 2.6473913756 0.9583599363 1.3012431485 -0.2825096354 -0.0904565318 0.2840637368
H 3.8755179597 1.2951401143 0.0546136313 -0.6782927381 -0.5719299978 0.4314328673
H 3.2270787406 -0.4552970120 -1.2129136479 -0.0379188697 -0.5558913031 0.7696708798
H 3.5294404839 -1.5834897853 0.2037872646 0.3950912805 0.0250240344 0.3378813796
H 1.3003954513 -1.1731104946 1.0337223870 0.0359109908 0.0699733792 -0.0681141350
H 1.2728567030 -1.8746064100 -0.5746165459 -0.4393812224 -0.0276452502 -0.4545392637
H 1.0625260329 1.1335892549 0.0294431668 -0.6121787664 -0.1810699906 0.1289044435
H 0.9448849020 0.3997051594 -1.5815736930 -0.1798842180 0.0931107600 0.7065925416
H -1.2713489286 0.6663537881 -2.4029575411 0.5419843471 -0.0599605194 -0.0628469184
H -2.4296495998 -0.3402463083 -1.5251395181 0.5076703078 -0.1772820704 -0.4126318023
H -0.9330114575 -1.1160579448 -2.1264503707 0.3456613575 -0.3226239814 -0.4724111974
H -1.1212418107 -1.9154566149 0.1492419522 0.5121401949 -0.3878284796 0.1852210037
H -0.6374758778 -0.6914541462 1.4673603841 0.2048278282 -0.8499251594 -0.0996593220
H -3.3418225756 -1.0904162580 0.1622907643 0.1767403881 0.2587320648 0.3575753872
H -2.8600921146 -0.6744140612 1.8448782800 -0.1355169483 0.0037191820 -0.5910069565
H -3.0353530576 1.5473863375 1.3668502876 -0.1422113865 0.2156398459 -0.7049485951
H -3.3402801185 1.2268220318 -0.4344248613 -0.2330904372 0.0372410570 0.7271081939
H -1.1310824233 2.1484970725 -0.5490053560 0.2981060371 0.4239398855 -0.2806346359
H -0.7176145463 1.4391306571 1.0895835456 -0.1557408821 0.4068485639 -0.6648043485
O 4.8660229965 -1.8159657938 1.6661252619 3.1118635843 5.4353319637 -4.8870058343
S 4.1997976287 -2.6495482975 2.7248353962 -3.8680656132 -1.0797068695 -1.1095544280
O 4.2603065856 -4.0720783937 2.2705992867 0.1346627337 -7.6387049881 -1.6354970535
N 2.6433632623 -2.1024068428 3.0918053859 -1.6316441106 6.3314459040 -0.4388566393
S 1.5320546944 -3.2497254589 3.6514499833 4.1958206723 -1.9167483645 -1.9339490147
O 0.8647939066 -4.0493739658 2.5723594140 -3.8537909971 -2.9286727090 -5.7843928938
O 2.0891906518 -4.1815931952 4.6846980777 2.7922400298 -3.9998547075 5.7050755657
C 0.2269007303 -2.3260038323 4.4777044268 -2.6224949181 3.0272475004 1.5364544789
F -0.3369463079 -1.4710998231 3.5380442741 -1.0347437858 1.4379983344 -0.5176097312
F 0.7986322487 -1.6546479362 5.5266647861 0.1076988879 1.3973591351 1.3653835521
F -0.7449274811 -3.1610844105 4.9600839575 -1.3368694684 -0.8881401846 0.5610191254
C 5.1516861054 -2.5346867774 4.2349522695 1.3291960903 -0.1050933438 4.3139883302
F 6.4391282090 -2.9500510624 4.0747377030 2.0650982106 -0.3877335795 -0.0074113979
F 4.5156593854 -3.3868697848 5.1348636127 -0.0341286573 -0.2006528813 1.1256126514
F 5.0954066754 -1.2270521164 4.6408880731 0.3705748756 1.6753061372 1.2675489312
45
energy=-60030.7539346983 config_type=IL_pair name=Pyr14-NTf2 Properties=species:S:1:pos:R:3:forces:R:3
C 3.6167347475 1.1828156140 0.2884479747 0.3220737120 0.6528273029 1.3273287297
C 2.3246204459 0.3866013649 0.4770209326 1.5309229831 -0.8063538328 1.9948900292
C 1.7981575316 -0.1382796012 -0.8067272925 2.7054852946 1.0767934478 -3.9046593079
C 0.5712262440 -0.9329218928 -0.7349988900 3.8774408218 -5.0562385070 -2.8894699116
N -0.6624361027 -0.4556085539 -0.3029906264 -0.0975567251 3.8199779828 0.5936969041
C -1.4702555247 -1.6608992634 0.0259304620 -1.4279641219 35.3131259303 54.8120925407
C -0.8021173226 0.4233277040 0.7869391749 -1.5748647414 4.0917284790 4.1958617742
C -2.3539009325 0.4872553397 0.8853402923 1.2812230176 2.2701011844 2.1872796367
C -2.6921135771 0.6122215962 -0.5602180300 -1.6440924018 6.1091571772 -2.0286641738
C -1.4586031299 0.1788062674 -1.3532375832 -2.6809816393 1.8179019372 -2.6799386460
H 4.1002408558 1.1984428316 1.2873416510 0.2918506180 0.0846305744 -0.4952790575
H 3.3917277005 2.2362763340 0.0493603087 0.3134431825 -0.2278953578 -0.5940216728
H 4.2650948355 0.6680230591 -0.4312202317 0.2139676970 0.4164860738 -0.1662723115
H 2.6185890202 -0.4941442473 1.0985348999 -0.5843677512 0.4102924407 -0.0255349084
H 1.6177478266 0.9803394076 1.0278232990 -0.6954972265 0.4933968180 0.5429592946
H 1.7846248873 0.6583709423 -1.5998317174 -0.3721641814 -0.2074124966 0.6536690121
H 2.6074269388 -0.8410440765 -1.1989866491 -1.0810013249 0.5858066062 0.3621032886
H 0.3603872018 -1.4553241489 -1.7356280066 0.4157202383 1.1824638333 1.1177725342
H 0.8108354962 -1.8500400911 -0.0837879388 0.4546650525 3.1807465494 -1.3629337263
H -1.0774091040 -2.4669464607 -0.6065952578 41.7000572861 -11.6067982753 -1.4017464609
H -1.2398149480 -1.9237666880 1.0761019612 0.2186145828 1.9138159285 0.0174797700
H -2.5210984673 -1.5429593673 -0.2207263628 -2.1533740593 6.4440227273 2.8336392114
H -0.3932469982 0.0022987249 1.6995660140 0.8322962557 0.0531187217 0.4472571759
H -0.5501934672 1.4816068002 0.5639156686 1.1927117539 -0.5595095115 0.1646769136
H -2.7609262888 -0.3822023117 1.4126976108 -0.6880620314 0.0395572121 0.7088963853
H -2.6251465892 1.3892596104 1.4788113702 0.0214512571 -0.2944774718 -0.3899265320
H -2.9071647481 1.6978477807 -0.7552187065 0.4487531903 -0.5490488494 -0.1702387418
H -3.5890626089 0.0535916548 -0.8412844087 0.2419708407 0.7571502761 -0.1870452019
H -0.9777765179 1.0425522479 -1.8028275138 0.8712389067 0.4173144645 -0.1965902551
H -1.7861474046 -0.5355005774 -2.1338244034 0.8669676021 0.1423893163 0.2037370776
O -1.5150173310 -2.0393951024 -0.9431346941 -27.5066182726 29.1968127977 -86.8690341749
S -1.4609305008 -3.3639383395 -0.2324957543 -10.9233799333 -56.5154066095 20.4926466422
O -1.5119613441 -4.4848194798 -1.2393359261 -0.4257237947 -5.3060187123 -4.0585086442
N -2.7350949744 -3.5343592624 0.9073165976 -1.7626509838 -5.9090158005 4.2881315841
S -3.8230805125 -2.2164576737 0.7734011675 0.5106567887 -5.9222400149 4.6133111093
O -3.5442019746 -1.3495037593 -0.4333671262 -7.9189294654 0.9781105367 -8.8704173425
O -3.7491716037 -1.4033894803 2.0427329565 -0.4352199586 3.2000924128 6.0061728295
C -5.5191202645 -2.7432098289 0.6216817162 -5.4451996092 -0.6262633448 -1.9218827354
F -5.7183698723 -3.5319954128 -0.4941960001 -0.0479122827 -1.1596364723 -0.6325531624
F -6.0043229543 -3.3270692318 1.7509865058 -0.4200477871 -0.8419746821 1.2532332925
F -6.2404359719 -1.5691476686 0.3651370936 -0.5088378520 0.7104806386 0.1988102110
C 0.1418681555 -3.4202878420 0.5676300511 4.1916826601 -7.9082946936 5.1722802693
F 0.3275135495 -4.6278491955 1.2307828018 2.1557238070 -0.9461803686 1.4859935276
F 0.2915607228 -2.3316425336 1.3872009289 2.5954035908 0.3990523402 3.3015190943
F 1.0675432005 -3.3177373907 -0.4779070675 1.1307342385 -1.3000352122 -0.1385369454
45
energy=-60076.2068417862 config_type=IL_pair name=Pyr14-NTf2 Properties=species:S:1:pos:R:3:forces:R:3
C 3.6305355898 -0.0202199656 0.1610723985 3.1797464490 -2.3344568304 0.1457907980
C 2.8248805033 1.1373534711 -0.2897578528 1.0178695722 2.6402360934 -1.1092510717
C 1.3608000527 1.0584468905 0.0188409312 -1.1844825616 3.1343361033 -0.1427912718
C 0.6585160512 -0.1022202137 -0.5830172728 4.8967516156 -2.5045997339 -2.2673545881
N -0.7305129481 -0.1403503330 -0.2653393456 -0.7046995724 -1.4967167328 -1.0786818013
C -1.3762212045 -1.0920480575 -1.1825088911 -0.5908708064 -3.6897861946 -2.0277420441
C -0.9979659536 -0.6749042046 1.0603806714 0.6572531642 -1.7274917814 3.2508907746
C -2.4201766525 -0.2921767748 1.3387484133 -1.3544896019 0.2217832141 3.0082417288
C -2.7614063041 0.8004820421 0.3501492707 -1.8212338092 1.3267183261 0.2126457629
C -1.4476343830 1.0854107233 -0.3857540073 -3.7176160644 4.1353264237 -1.0285002315
H 4.5946852261 0.3460753257 0.5738393049 -0.3212575682 -0.1697264440 -0.0388665537
H 3.1703138398 -0.6243943933 0.9578007809 -0.1758072428 -0.2314027782 -0.1545318505
H 3.9455711597 -0.6601150979 -0.7143864751 -0.6877380300 0.2050232051 1.0155165104
H 3.1944588618 2.0725487319 0.1989443719 -0.2319505119 -0.4423932304 -0.1888130129
H 2.9941904069 1.3065989686 -1.3788385359 -0.3292590628 -0.0802273735 0.3750396284
H 0.9213563155 1.9731665412 -0.4797292328 0.2446350408 -0.6077729115 0.8754955672
H 1.1830878728 1.1220232449 1.1001300265 0.0466177256 -0.0135134065 0.2047604306
H 0.8022739091 -0.1065032241 -1.6931749907 -0.3461273987 0.3093439950 0.4765730024
H 1.0750906806 -1.0912572875 -0.2612335764 -0.0149437787 0.5332417362 0.1572766805
H -2.4726016734 -1.1244314372 -1.0331121553 0.4374621747 0.0496056907 -0.2203574997
H -0.9321975537 -2.0920107387 -0.9408972176 -0.5098728106 0.4168945917 -0.2293102292
H -1.0744399520 -0.8784618935 -2.2140713219 -0.3734784562 0.3996900521 -0.3078294689
H -0.2574981710 -0.2293030362 1.7476854605 -0.1693803609 -0.2980716935 0.2445911987
H -0.9258070485 -1.7644806208 1.0056855700 0.8140292451 -0.6962088904 0.5636426976
H -3.1453797868 -1.1072688943 1.2537400249 0.1896486035 -0.4921107141 0.2077772187
H -2.4340495177 0.0752271426 2.4048338292 -0.4604663404 -0.3302445232 -0.9586877480
H -3.1068427702 1.6675655591 0.9433695316 -0.0520430993 0.1715218527 -0.7267613385
H -3.5536813058 0.4913317363 -0.3574992953 0.0335972016 0.2327771320 0.2989024798
H -1.0287107426 1.9565374139 0.1156585250 1.0494010491 0.1468876210 -0.2322873514
H -1.6906345019 1.2322582461 -1.4515589399 0.6373783808 0.7107538022 -0.0095650344
O -0.5355434695 -5.1118715735 4.3799381932 0.0322179580 -6.0481531831 4.6080698096
S -0.8185112246 -3.8693929067 3.5881847182 6.0534788678 -0.3364043168 1.3646715427
O -0.7141786555 -4.1719441117 2.1354878924 -0.4756345917 -0.4001549358 -8.9043513763
N 0.3631160973 -2.7073924184 4.1037549923 -1.1310502349 6.1162218647 2.9463407892
S 1.8993758421 -3.3817362604 3.6287206290 -5.1221547513 -0.7511353218 -2.1914150164
O 1.8193624951 -4.8777109400 3.5902717377 0.3753713386 -7.6725214038 0.6253988773
O 2.2705102916 -2.9025338326 2.2459752428 2.2112969826 3.6161240416 -6.1238757503
C 3.1986806252 -2.9170188154 4.7265110732 4.6438187363 1.8724744933 3.6689850332
F 4.3913389377 -3.4938133372 4.2806572404 0.6569264633 -0.4986643122 -0.2092356475
F 3.3931881369 -1.5528333150 4.6834837951 0.3129628063 1.8129663942 0.3210831327
F 2.9781579317 -3.3240177609 6.0162507311 -0.1081506794 -0.3440950464 1.7124291295
C -2.4680005123 -3.3523952421 3.9670261721 -5.2032849354 2.1399295750 1.3912234478
F -2.6597914521 -3.1678167124 5.3137298052 -0.4302097183 0.5295067937 1.5654414399
F -2.8334365682 -2.2249016619 3.2632055232 -0.7839819487 1.7439308741 -0.6194888099
F -3.3038131668 -4.3666199099 3.5559741098 -1.1846279238 -1.3056137363 -0.4759191676
45
energy=-60067.5828785377 config_type=IL_pair name=Pyr14-NTf2 Properties=species:S:1:pos:R:3:forces:R:3
C 3.7830079116 0.5966327875 0.6762346735 1.5410356844 0.0606590437 -0.5851046111
C 2.7848111021 -0.5327413030 0.4570129640 0.1240031703 0.9201468283 -0.6249242343
C 1.4562009202 0.1553657599 0.1198490962 0.4511081143 0.1989206251 1.2514375868
C 0.4290005348 -0.9198515077 -0.1072214449 4.1370669830 -2.9224046059 2.2329751639
N -0.8743021662 -0.4173107779 -0.4343232491 -0.7060019723 -1.1050600701 -3.1056412740
C -1.2949462819 -1.1704423144 -1.6257536623 -0.1188325519 -3.1894618424 -2.3489427392
C -0.9016110442 0.9864290596 -0.7756318588 -0.7040380966 4.3947339018 -0.9169708193
C -2.3831126293 1.3239137966 -0.6125662337 0.0768761141 3.0750628559 -0.3760524040
C -2.6778540220 0.6298998414 0.6955733349 -0.1931934435 0.5160629065 -0.5103993793
C -1.8651189951 -0.6409820378 0.5965770156 -9.3766497953 1.3963883514 -7.0629133288
H 3.5786705567 1.1871657043 1.5717489602 -0.0191544577 0.0528579290 0.3196612844
H 4.7876549848 0.1328207536 0.7285342045 -0.0354334355 0.5836541466 0.1999131621
H 3.7418971577 1.2644833176 -0.2066560631 0.2757314832 -0.0518440888 0.3379249031
H 3.1033098796 -1.0606813193 -0.4562321170 0.0593518631 -0.7069662037 0.4246310620
H 2.7139317583 -1.1472541398 1.3545329521 -0.0722253667 -0.6618524904 0.0682487237
H 1.6432351696 0.7730841523 -0.7691181101 -0.3591154327 0.3043763417 0.1485934477
H 1.1305187437 0.7264969182 1.0213966220 0.3614486388 0.2861599180 -0.7023402359
H 0.8330286592 -1.6633290153 -0.8180309248 -0.4617346771 0.2626383058 -0.3517086931
H 0.3298849893 -1.4779697748 0.8633413676 0.1008564184 0.2888750155 -0.9099123892
H -0.5168142307 -1.0582697821 -2.3918804212 -0.2823293458 0.3477791137 -0.6167802649
H -2.3120580213 -0.9317573286 -1.9487627256 -0.0524016028 0.4487088495 -0.1996812044
H -1.2805359315 -2.2539790076 -1.3518706057 -0.1749655603 0.5467699939 -0.0316200214
H -0.3900526390 1.6094282438 -0.0137672488 0.2668795169 -0.4669151578 -0.4962360997
H -0.5358131169 1.1456734730 -1.7923838376 0.5894794655 0.1856523938 -0.2236606281
H -2.4381336405 2.4394523384 -0.4714024418 -0.4274322752 -0.8474594086 -0.6621397884
H -2.9811988534 0.9766414288 -1.4572261609 -0.3120179670 0.1359650897 -0.2457948319
H -2.2181115264 1.2242404991 1.5117130485 -0.8587486427 0.3067552131 0.3620884110
H -3.7625078245 0.4510906648 0.8344379027 0.6435250391 0.2343456583 0.4159452426
H -1.3294726079 -0.8650702740 1.5436782315 -13.9537700106 18.6692761861 -23.7307529518
H -2.5535088370 -1.4831801569 0.3088724259 1.1323446622 0.6925238350 0.0070353794
O -0.6944350392 0.2433537018 5.6349620032 3.6166440971 -0.4510602700 6.4677205948
S -1.3707461034 0.0568643419 4.3100486507 -5.9560881184 2.2428802441 2.2399319680
O -1.4247001816 1.3830183437 3.6092909635 0.1058990101 6.0861018732 -4.8100465426
N -2.9327440870 -0.6022579768 4.5989877710 -0.7781619652 -3.0232104584 4.6367065930
S -3.9829302494 -0.3711170221 3.2645831585 3.6662293688 1.1359939747 0.4029742327
O -3.6160196192 -1.2571839528 2.0990394188 0.9681438172 -5.2830831542 -4.4217675357
O -4.0636927769 1.0547291313 2.8063118668 -1.5142530700 7.1440906420 -1.0952207140
C -5.6122232301 -0.9048947516 3.8047602231 -3.3720592371 -2.1625898265 2.1878847313
F -5.4926061855 -2.2407348416 4.1560283092 -0.6189436702 -1.2449255033 0.1471472634
F -6.0116696810 -0.1999988477 4.9065749029 -1.1606485505 0.8603353878 1.0903930181
F -6.4519911038 -0.7420696195 2.7200770668 -1.0877813602 0.0233203683 -0.4578061558
C -0.4250028360 -1.0546256836 3.3053833486 5.4234726228 -3.3876821989 2.6797674090
F -0.3334149901 -2.2442999217 4.0126077611 0.4577051146 -0.9419074151 -0.4826426532
F -1.0235698611 -1.2694084411 2.0990567807 17.3732184128 -24.8181525257 30.0425893924
F 0.8201228975 -0.5084799409 3.0724870551 1.2226082299 -0.1352699927 -0.6886674730
45
energy=-60069.2295065678 config_type=IL_pair name=Pyr14-NTf2 Properties=species:S:1:pos:R:3:forces:R:3
C 3.9959516415 -0.4267749660 -0.9613952313 3.7390082635 0.6250096512 -1.2986839894
C 2.8790665654 0.2599155688 -0.2558962692 -1.4445997451 1.3075239234 0.4247602790
C 1.5292053868 -0.4251734881 -0.4813071973 0.0179936331 0.9666176141 -1.5787208232
C 0.5327245139 0.3978734389 0.2978110624 4.7886875443 1.7161166759 0.7482081381
N -0.8163231376 -0.0562153251 0.2366182991 -0.6255519004 1.6775160849 1.1232219518
C -1.0830683571 -1.0753447787 1.2304519455 4.0271142110 9.7779037600 7.2307929588
C -1.6437947953 1.0985484656 0.6219691563 -0.3829711633 5.3135869432 1.4406814760
C -2.8287625323 1.1058638846 -0.2792116294 -4.0997124937 2.5066580231 0.5533464131
C -2.7869975683 -0.1998574544 -1.0076505857 -0.1317799373 -0.3719738468 -1.5963058604
C -1.2785512499 -0.4620564970 -1.0547826425 -3.1412646774 3.9053199905 -2.3868409094
H 4.8895629076 -0.4152488116 -0.2708260777 -0.6260436890 -0.1030589159 -0.7976408634
H 3.8211475030 -1.4950569406 -1.1955264022 -0.2753036139 1.2215212251 -0.6172723864
H 4.3474941942 0.1243762345 -1.8594302383 -0.5034956722 -0.1624738904 0.1266623060
H 3.0180017441 0.2958443052 0.8447374875 0.3426183270 0.2022487906 -0.3259454393
H 2.7912991662 1.2928535216 -0.6556578613 0.1435219745 -0.0312734244 0.5818520980
H 1.5414292875 -1.4779734125 -0.1926423297 -0.3876611404 -1.4394115611 0.2478895305
H 1.2280348101 -0.3797545358 -1.5515286801 0.4372308825 -0.1097643687 0.3586645467
H 0.8343510187 0.4041401432 1.3718999940 -0.2360122322 0.3313164893 -0.3741168093
H 0.5504934387 1.4329948845 -0.0972839607 0.1683522498 -0.1626433092 0.1710905674
H -0.2739949028 -1.8042782218 1.3364595040 1.5327076095 1.0694546284 -0.3674749426
H -1.1308477620 -0.5314651937 2.2121447675 0.8000680812 -0.1672636747 -0.3017625411
H -2.0449909595 -1.5659218805 1.0964087379 -3.3008005235 8.8374210032 0.7319014230
H -1.0881789971 2.0630925388 0.4412742004 -0.1224298495 -0.9893874849 0.2676046599
H -1.8836044394 1.1045605066 1.6887779873 -0.1120962539 -0.2767831807 0.2678656519
H -3.7480479613 1.2139974437 0.3669159467 0.5315391346 0.0476729462 -0.8134382411
H -2.8259901983 1.9779686151 -0.9938509805 0.1647573740 -0.7968449881 0.6553349382
H -3.2731400553 -0.9967889849 -0.4374768313 -0.6098024603 -0.1575011133 -0.1532877529
H -3.2183746164 -0.0782669793 -2.0293640596 0.1324446624 -0.6138513521 0.6065148702
H -0.8642323529 0.1603685621 -1.8617562593 0.4118149487 -0.0919999783 0.3809103373
H -1.1698622920 -1.5422206432 -1.2572340099 0.9087637707 -0.1650931118 -0.5454214806
O -0.8115390464 -2.4344410648 -1.8773299376 -1.4684456521 -0.0153677874 -6.4595837303
S -0.3492138789 -3.5443613853 -0.9497689344 5.9168701607 -2.3420049788 -1.0004565828
O -0.1533595362 -4.8341305852 -1.7079471343 -0.2837742095 -5.6725966133 -3.1934872327
N 1.1232187998 -3.1752426227 -0.1621155520 -0.5223946769 3.9276961378 5.8911307967
S 2.4190548865 -4.0574613752 -0.8764369179 -3.9954809227 -1.0587762114 -2.4352563861
O 2.1041813801 -5.5137282083 -0.9903521466 -0.8394888155 -7.8408917098 1.0315093361
O 2.5948978561 -3.5411765253 -2.2743057587 1.7877960955 3.7363076094 -6.4246964593
C 3.8939673676 -3.7647746048 0.0672461241 4.3769136116 1.6106119859 3.9207940803
F 3.7513263452 -4.1677691151 1.3694437037 0.0467536372 -0.6855771220 1.7392544111
F 4.1164387931 -2.3972524039 0.0629031801 0.7368378083 -0.7413519114 1.6900405030
F 4.9926863633 -4.3697992517 -0.4882994853 1.0298345402 -0.8317197456 -0.6370537845
C -1.6559267357 -3.7347806445 0.2657248975 -3.6992503369 -4.7350852979 1.9101680740
F -1.3479721880 -4.7475180729 1.1324802690 0.2616654181 -1.2618670992 1.0821128675
F -1.7409246024 -2.5633866304 0.9718872066 -4.3091628449 -17.9832538820 -1.4667797370
F -2.8387882151 -4.0362619100 -0.3730172840 -1.1849270535 0.0178651768 -0.4149934064
45
energy=-60076.8269248254 config_type=IL_pair name=Pyr14-NTf2 Properties=species:S:1:pos:R:3:forces:R:3
C 3.5702506755 0.7751389952 -0.9575558978 -0.2703877785 -0.0565612916 -0.4047491594
C 2.2140136243 0.8421047954 -0.2152873265 1.5362231777 1.1761091878 -0.0081248941
C 1.8270155873 -0.5152762374 0.2805119254 3.3211962209 -2.5989147287 -0.8454453093
C 0.5707233580 -0.6487832254 1.0326167916 3.6758317723 -4.0256442431 3.8082955032
N -0.6700771157 -0.3401254440 0.4592655223 -1.0423627807 -1.4782163779 -0.0169876348
C -1.6719125687 -1.1593092123 1.2053546840 -0.8175637702 -3.6552570621 1.5041348298
C -0.8856567907 -0.6624680831 -0.9147778396 -1.8482510872 -1.9701905582 -5.0215474729
C -2.3657666263 -0.2581704113 -1.0484206079 -1.2862101084 -1.6315428048 -1.9506999139
C -2.4636764900 0.9835665379 -0.2087340215 -1.5016272908 2.9527845277 -1.1105979201
C -1.1548421730 1.0035727758 0.5779268494 -1.8205953757 4.9901938337 1.5704015350
H 3.9662278631 1.7987897885 -1.0005028508 0.4796958423 -0.1420300290 -0.0569411611
H 4.2555732793 0.0724735315 -0.4384071963 -0.0470945235 0.4880644148 -0.3361905445
H 3.3685579939 0.4406957760 -1.9821694684 0.4561551576 -0.2521238823 -0.1886548694
H 2.4379724692 1.5051654831 0.6409153407 -1.0301577601 0.1820271963 -0.0502199689
H 1.4669493476 1.2257365849 -0.9002834222 -0.4858887741 0.8192544838 -0.1320318518
H 1.9366942811 -1.2996148166 -0.5245625930 -0.3787600063 0.8418387896 0.2830759998
H 2.6586532270 -0.8036724351 1.0006128454 -1.0912379005 0.1173533588 -0.4868916144
H 0.6735161821 -0.0556083855 1.9777181780 -0.6874396882 -1.0753166087 -1.2177930027
H 0.5235077019 -1.7284712870 1.3938221383 -0.0009006591 1.1841975826 -0.7680560193
H -1.2915433620 -1.3950391559 2.2209595990 -0.2848072044 0.8990305035 0.1702034061
H -1.8104767969 -2.1419622037 0.6966188700 0.1798585904 0.5832367493 0.0732984782
H -2.6251546056 -0.6321841526 1.3112732938 -1.2244518170 -0.1856645624 1.3623189252
H -0.7877262501 -1.7478184165 -1.1378532452 0.6210403928 0.4699382110 0.1888616032
H -0.3563923942 -0.0315451675 -1.6237643170 1.1782922293 0.1553390110 -0.0237823929
H -2.9869719131 -1.0781747267 -0.6454510965 -0.1701781920 0.3412626798 -0.6380665194
H -2.6203420878 -0.0622128304 -2.1048227723 -0.0838094372 -0.2396459047 0.1587814602
H -3.3533925012 1.0475916862 0.4305494242 -0.1249839552 -0.3155830104 0.1875981761
H -2.5342031868 1.8616305382 -0.9146760796 0.2645233550 -0.5255959338 0.9269318681
H -0.5487100206 1.7867176834 0.1168846364 1.1282286558 -0.2130582949 0.1778381239
H -1.3428107077 1.2172520149 1.6531164416 0.2938671506 0.6305414252 0.3495564208
O -1.5279932869 2.3523906348 3.5318600987 -1.6143281940 5.4884934708 -5.8413416205
S -1.1276636034 1.2074306311 4.4057593720 -4.2983124053 -1.2584187474 1.5762493313
O -1.3750616279 1.5412871676 5.8546734682 -0.6047432596 1.0069618825 6.5601451447
N -1.8121235204 -0.2782423140 3.9326084604 3.9246239955 -3.3269299257 -1.1574706949
S -3.5066430837 -0.3357918604 3.9027413213 3.6225660321 -3.0837782817 0.6356819862
O -3.9899973667 -1.4770606410 4.7734160944 -1.8351907028 -4.2541582387 4.2097642054
O -3.9338504497 -0.6231474549 2.4890917156 -2.1588372847 -0.2326412238 -7.9239980107
C -4.3288952719 1.1055872654 4.4612978465 -4.2758146208 5.8767928780 1.0061621062
F -5.7031238409 0.8544086848 4.3572645570 -1.0220940927 -0.4399275314 -0.0624622385
F -4.1056169924 1.4025492699 5.7699615279 0.7293107748 0.8107671421 1.7598239666
F -4.1156293532 2.1811480588 3.6020988213 0.4873300852 1.0654939650 -0.1818567979
C 0.6524310268 1.0343749739 4.2203192639 4.8771714261 -1.1898134906 0.3504655304
F 0.9608248070 0.7479236489 2.8880630265 1.8789434318 2.2750750027 0.5029503319
F 1.3209867967 2.1853547520 4.5542489289 0.5419076146 1.1432790990 0.1355905645
F 1.1481992449 0.0122160069 4.9767693126 0.8278332569 -1.3617682754 0.9283229786
45
energy=-60052.1198478420 config_type=IL_pair name=Pyr14-NTf2 Properties=species:S:1:pos:R:3:forces:R:3
C 4.0098192946 -0.7111657031 0.2611394061 2.2610015281 -1.6816975154 0.8024068962
C 2.9263595187 0.3000948389 0.0545445456 -0.5774233455 1.5928398798 -1.3555605890
C 1.5379993171 -0.3118016426 0.2792592269 1.0556701468 -1.6451143912 -0.4334035680
C 0.5228226854 0.7563738538 0.0547376333 4.7844680207 3.4990301113 -1.0277896536
N -0.8414106897 0.3842430263 0.2167774276 1.5313832898 -0.8476084659 -5.6354082248
C -1.5218110466 1.2338270685 1.1790124406 11.8374370176 5.7349215906 -33.5960419294
C -1.1048530220 -0.9720492604 0.5544235742 -1.3010507918 -5.2222607448 1.8763987889
C -2.5761124643 -1.1475717516 0.1676874872 -1.9711835626 -1.1996497010 -0.2182384658
C -2.8829563993 0.0096864620 -0.7871981668 -2.0849714306 -0.2053837737 -1.3787947390
C -1.4934648657 0.5276349618 -1.0854441599 -1.3209399996 -0.1730104274 -3.1020271701
H 4.8521559319 -0.2444332286 0.8127289614 -0.2819824914 -0.2760745316 -0.0027165733
H 4.4571304194 -1.0629490171 -0.6921741194 -0.4866944403 -0.2464100404 0.3245372015
H 3.6311846649 -1.5687954247 0.8765124883 0.5522283631 0.4440527450 -0.5889537250
H 3.0859423439 1.1544438182 0.7437650610 -0.2020878528 -0.1584684493 -0.2929799116
H 2.9682698943 0.6409440693 -1.0116775425 -0.0433710188 0.2825822379 0.7392371306
H 1.4732359476 -0.7261704326 1.2886894419 -0.0559547252 -0.2400666723 0.3636309390
H 1.4329229818 -1.1261046322 -0.4755789114 -0.1242174445 0.1660871123 0.5281284895
H 0.7381131413 1.6040656059 0.7580487281 -0.4087353094 -0.5752665826 0.0968415919
H 0.7452136131 1.1887122431 -0.9620098315 -0.7695732738 -0.3913040681 0.6137895920
H -2.4831082932 0.7706136726 1.4249915502 -8.3855712211 -6.8099108668 -10.7303502741
H -1.6404498537 2.2294370740 0.6913651041 -0.0649875299 -0.2940350975 -0.5451620123
H -0.8699113892 1.3762599297 2.0669566138 22.6595036730 2.0204788561 -5.6262311608
H -0.5379074291 -1.7158197961 -0.0353289998 0.5008724868 0.4923436278 0.3949014561
H -1.0531341174 -1.1648188567 1.6493355190 0.9221244533 0.2077188740 -0.1671424180
H -2.7402356377 -2.0905205057 -0.3879603363 0.0787561381 -0.0735169190 0.5832775341
H -3.2443660517 -1.0885396075 1.0466420335 0.1500701607 -0.4227108491 -0.1960083374
H -3.5458380218 0.7566553079 -0.3194086492 0.1986225058 -0.0186399176 -0.2936004492
H -3.3698310234 -0.3639070328 -1.7114006282 0.0821808975 0.2513200343 0.2145731314
H -1.4688809489 1.5668398637 -1.4402314173 0.3655917258 0.0701253178 -0.1522596325
H -1.0068985004 -0.2051849043 -1.7590967134 0.0868930758 0.6086457673 -0.5362975219
O 2.1636681855 1.1753932554 5.9528189142 0.9066869210 2.5238956270 7.2260023292
S 2.1603918459 0.8028883807 4.5035748406 -5.0749037931 -1.2554824297 1.1080667293
O 1.9726699244 -0.6836710634 4.3364738632 0.0034540147 -6.8163257931 -1.7518413586
N 0.8670299172 1.6717410767 3.7574310598 -0.4219125638 5.2813633141 -5.6462601136
S -0.5936994700 1.0590302894 4.4459071086 6.6496611242 -1.8998221653 2.0795486828
O -0.5945296632 -0.4308573386 4.2385804028 -1.2142880928 -7.1700877130 -2.1053445395
O -0.6778925214 1.3410543809 5.9087436696 -1.4826178792 2.6917181764 7.4483509022
C -1.9970638394 1.6827613674 3.5387026713 -5.5805556211 7.1161603742 6.4976820177
F -1.8480502434 1.2498434337 2.2497438381 -28.0474561030 1.0260503740 48.4517643382
F -2.0293755407 3.0552157115 3.6151024082 -0.4691219886 1.4337840789 -0.6058437864
F -3.1770029119 1.2075164776 4.0539270015 -1.1597861974 -0.6555358535 -0.1254857048
C 3.7317372928 1.2575083582 3.8272860560 5.3288513410 1.7170351268 -1.8260986663
F 3.8399589756 1.0192110081 2.4835391470 0.3857036252 0.2301542505 -1.8308755261
F 4.0439799229 2.5555206706 4.1536258470 0.4537151947 1.6431807575 -0.1366277849
F 4.6815517198 0.4540513533 4.4473300441 0.7425442613 -0.7653510164 0.5384307473
45
energy=-60072.2021573295 config_type=IL_pair name=Pyr14-NTf2 Properties=species:S:1:pos:R:3:forces:R:3
C 4.0497872162 -0.7085407178 -0.0109665002 2.8056135612 -0.6480983328 0.5634260058
C 2.8306545959 0.1359106001 0.1652369775 -0.6307797522 1.8389931172 0.1351272959
C 1.5342942403 -0.6013176158 -0.1631489100 -0.0241267730 -2.4698551418 2.4339204180
C 0.4331688790 0.4250248139 0.0791705203 5.5329822825 1.9415536937 1.1922372594
N -0.8686362459 -0.0856896694 -0.1782734811 -0.6260614848 0.5771608616 -0.6158953174
C -0.8820170584 -1.2946171994 -0.9706008367 -1.0987138450 -3.3791670675 -1.0184826972
C -1.5813477262 -0.2374647416 1.0501257865 -4.0956459458 -1.9465510605 5.1993372115
C -2.6045757343 0.8984217720 1.1265602677 -1.1689428787 0.4242640295 0.2720794611
C -2.9668595091 1.0270603286 -0.3528504991 -0.0987409584 0.4735533514 0.5080598025
C -1.5873530578 0.9123740578 -0.9683973995 -4.4780221579 8.1461036339 6.7035513167
H 3.8427839682 -1.7168170462 -0.4113860565 0.0709082308 0.2275350706 0.0481911902
H 4.5579453050 -0.7994003343 0.9759890313 -0.1040338486 -0.4148179477 -0.5290929105
H 4.7783544149 -0.1844499892 -0.6653915573 -0.2112713977 -0.4982802322 0.0370190977
H 2.7491138335 0.5486627125 1.1815311847 0.1888514846 0.0005927425 0.1237544084
H 2.8550105289 0.9880873742 -0.5697155672 0.4500171090 -0.5129928936 1.4466129023
H 1.5569761640 -0.9771687172 -1.1904315927 -0.1871699667 -0.6720110885 0.4873299999
H 1.3840550608 -1.4669847439 0.5350453921 0.2376928061 0.4930318147 -0.2961007629
H 0.5817849745 0.7817906874 1.1309843537 -0.7422915106 -0.0854596812 -0.6539726729
H 0.6822546277 1.2717590849 -0.5969430963 -0.5102798720 -0.3385902804 0.3630318831
H -0.4209522367 -2.1632447734 -0.5044130855 0.3680567996 -0.0038318927 0.5945349025
H -1.9453770115 -1.5444402516 -1.1626416927 0.0385163790 0.1258280675 -0.2727384413
H -0.4202030397 -1.0340539767 -1.9540911647 -0.6541724671 -2.3916157621 2.3184239670
H -2.1888099703 -1.1770047505 0.9631289987 0.6918219602 0.3687813896 0.4366351522
H -0.9625227844 -0.2471417281 1.9540537740 0.5009927567 -0.4919767976 -0.0507263777
H -3.4996429919 0.6267296382 1.7113472295 0.4369109156 0.1552941351 0.5632384271
H -2.1453658866 1.8515743795 1.4297337869 -0.1133123478 -0.1144488019 0.5739832977
H -3.4134272436 2.0143579827 -0.5461016855 -0.2413157278 -0.2781737799 -0.3770885625
H -3.6026237415 0.1899947539 -0.6637395899 -0.5087394132 -0.0115352279 -0.2874361478
H -1.1082498711 1.9207649179 -0.8186760524 -0.1313286733 -1.1430167547 -0.1322007479
H -1.6382196998 0.6458231515 -2.0378008099 -0.1876243325 2.0068562718 3.3671868216
O -2.1152561676 -1.2731951425 -4.9043749533 1.4379701435 -3.8214560022 -5.6618567153
S -2.5520744484 -0.4415159640 -3.7360309118 1.9710084869 -2.1707241060 0.3703333816
O -3.4319875557 -1.2046872091 -2.7895640337 -4.1870586439 -2.9797673333 5.4762853623
N -1.2127190165 0.2405740328 -2.8828948164 2.9154467126 -0.4185942981 -9.9661336280
S 0.2145951400 -0.4103002496 -3.5853638189 -3.0892416622 0.6408851946 -4.9769446150
O 0.0041157310 -0.3343164399 -5.0832366483 0.6223756492 1.1782389671 -6.0584287496
O 0.3575496745 -1.8189427811 -3.0982196283 1.9555030992 -6.8369737024 2.6609185722
C 1.6587229202 0.5548775464 -3.2182671095 4.5919677602 3.6562752350 0.7383372106
F 1.5240115751 1.8364866876 -3.6920764354 -0.1163914438 1.4672484038 -0.4960549936
F 1.9079645225 0.6166765882 -1.8635122163 0.8495444817 2.0817669138 -2.3857207331
F 2.7164178379 -0.0415777374 -3.8778009389 0.9991203075 -0.4802444417 -0.2363403042
C -3.4916489639 0.9160206834 -4.4059672975 -0.7340771337 4.6746195155 -2.7226577854
F -3.9406080925 1.7343182476 -3.4173617740 -1.5326818850 1.2585841559 1.3690974135
F -2.6127949231 1.6700826024 -5.1879697183 0.4925885092 0.7134841576 -0.6595531538
F -4.4497395905 0.4246717991 -5.2472232965 -1.6942131472 -0.3441301311 -0.5901902141
45
energy=-60070.8321349705 config_type=IL_pair name=Pyr14-NTf2 Properties=species:S:1:pos:R:3:forces:R:3
C 4.0900864893 -0.4504339581 0.2486288264 3.8309338598 -0.4959163250 -0.6983798229
C 2.8827907695 0.3824504554 -0.0344220456 -0.4158916116 1.9650874782 0.7515535122
C 1.6017563999 -0.4665677091 -0.0341797731 1.5338281371 -1.1951235140 -0.4425519675
C 0.5038836662 0.5005852964 -0.3279413118 3.8458547410 2.2622922201 0.0278485556
N -0.8214493307 -0.0181419163 -0.3902056321 -0.8014217526 1.0783055967 -0.9982507264
C -1.0505335307 -0.9479152664 -1.4524741629 0.1113962678 -3.6787493049 -2.6201810799
C -1.6393376694 1.1947081173 -0.5900728851 -0.1886933175 4.1348644137 -0.1481591114
C -3.0443743642 0.7408137442 -0.4035139214 -2.6916129288 -0.0515473987 -1.5631237870
C -2.8825841436 -0.2635906963 0.7194737931 -3.2534342742 -10.9803975697 -6.2868517899
C -1.3663218913 -0.4509131994 0.8624045336 -3.0299850482 -6.3047851196 1.8386597593
H 3.8964120037 -1.3752629401 0.7955578777 -0.2596238976 -0.2877440391 0.0318992533
H 4.8646543776 0.1066869881 0.8336304654 -0.6455486888 -0.2027110897 -0.2019604233
H 4.6193714562 -0.6813158834 -0.7197468992 -0.5615882172 -0.3404321683 0.8758617459
H 2.9962263250 0.8988371959 -1.0071333110 -0.1004038831 -0.1118870397 0.1298918476
H 2.8347175601 1.1907095055 0.7411300156 -0.4238900540 -0.4324593330 -0.3745306825
H 1.7498469677 -1.2130153324 -0.8362425470 -0.4122808092 -0.0941716533 0.1116220748
H 1.5028792115 -0.9950057328 0.9217365061 -0.2940742673 0.0661181443 0.2150779453
H 0.5038185073 1.2589477967 0.4995280686 -0.0876457752 -0.4900732829 -0.3457570362
H 0.7283576016 0.9829290091 -1.3029510143 -0.1609888717 0.1002228858 0.2692963599
H -0.7264282651 -0.5154484319 -2.4016954545 -0.1701147321 0.1012875307 -0.5132056677
H -2.1105351003 -1.2483395086 -1.4342271270 0.1172886274 0.1473196242 -0.2672840788
H -0.4467316722 -1.8520806063 -1.2434873746 -0.0673970818 0.0996267274 -0.1681542139
H -1.4052086285 1.7243180870 -1.5084924654 0.2657583815 -0.0209861537 -0.8778682919
H -1.3201989314 1.8429799299 0.2786507461 -0.7177086446 -0.2123489159 -1.2047520223
H -3.4243838495 0.3089610813 -1.3341869673 -0.2120673128 -0.0951920338 -0.4738189421
H -3.7137895320 1.5843361103 -0.1535117792 0.2324375443 0.0714037007 -0.1636370370
H -3.2555330583 0.2405630411 1.6361067277 -2.9808109603 -4.6564717436 0.5220180361
H -3.4004927350 -1.2101699724 0.5036940969 0.2709453225 -1.0220594998 -1.2857568028
H -1.1659229266 -1.5076422832 1.0964266579 0.6918884353 -0.0654726865 -0.4969248655
H -1.0009757068 0.2380170785 1.6530840409 0.3507167588 -0.5093418657 0.1603510220
O -2.5602828765 1.0730894255 1.6463645654 3.9209067253 5.0961490543 5.6639705539
S -2.8095230758 2.4117816466 2.2353909116 4.1756208592 6.7595260646 3.3587617028
O -2.8453966975 3.4730986840 1.1877591970 -0.5552757433 5.7215067213 -5.5624358611
N -1.6741478487 2.7685000745 3.4724042836 -1.0754240169 3.5457480498 4.3259183425
S -0.1702083711 1.9807566516 3.2858814769 -4.5915041984 1.4239709517 4.0035916303
O 0.3174274102 1.5254658653 4.6420109892 2.2494286448 -1.0921839974 5.8059387227
O -0.2188095423 0.7887593589 2.4099854828 2.8300501111 -5.4860297926 -4.5832370414
C 1.0005026946 3.1936671760 2.7224438330 3.0843487664 3.8899981171 -1.4935272496
F 1.0512766214 4.1760324541 3.6974442325 0.5199154585 0.7741960097 0.3926198426
F 0.5962673009 3.7490542342 1.5270254869 0.0523195606 0.6858358273 -1.3384133339
F 2.2177793751 2.5511804302 2.5855597620 1.3408718578 -0.0616599941 -0.3569007798
C -4.4127363784 2.4983520659 3.0458088905 -2.9314005212 1.5427685484 2.8195253588
F -4.3998333897 1.5657504734 4.0405108432 -0.9558431771 -1.0908485925 1.4909965988
F -5.4262909647 2.3535284914 2.1467948705 -1.5152725262 -0.7348671053 -0.9889000761
F -4.4948266592 3.8073027969 3.5347307693 -0.3124858453 0.2450246050 0.6606477977
45
energy=-60054.8170980674 config_type=IL_pair name=Pyr14-NTf2 Properties=species:S:1:pos:R:3:forces:R:3
C 3.9775181116 0.2793455667 0.2286673269 1.0243792423 -0.6635448258 0.9778117217
C 2.6205487601 0.7715972385 -0.2435700364 0.5279611544 0.8921695869 -0.0328893458
C 1.5634508909 -0.2127316208 0.2371359430 0.3441100720 -0.0015140409 -1.2566936252
C 0.2409982170 0.3462775845 -0.2721687662 3.3541166791 3.2180205584 -2.2590993900
N -0.8872711964 -0.4684919511 0.0952152937 1.3192368008 -0.7502313921 -7.2496190954
C -0.4326921915 -1.7881322328 0.4311919769 1.5390645923 -6.3512297712 -0.4226157891
C -1.9118305331 -0.5590781560 -0.8999824300 -3.4878804494 -2.3742434917 -5.9550054292
C -3.0062459959 0.4084599257 -0.5464729061 -2.3065458875 1.7485120105 0.8670108768
C -2.3379041382 1.2544586253 0.5322595279 -1.0995102107 3.3771925236 -3.1939937381
C -1.5360657045 0.1824675401 1.2206058648 -17.2344164149 25.9766529352 -10.0103140063
H 4.7220097774 1.0983253422 0.1391960383 0.0611667087 -0.6667464869 -0.0723054984
H 4.2245475134 -0.6148141072 -0.3811794549 0.5217119888 0.4744787705 0.1980762769
H 3.9250425699 -0.0690053241 1.2975169067 0.1819960605 0.5133485697 -0.7976289931
H 2.4016245098 1.7643822267 0.1994895583 0.0588004863 -0.0924639874 -0.3910140382
H 2.6606417846 0.8333837271 -1.3483093286 -0.3926134335 0.2392859956 0.2068317199
H 1.5570475066 -0.1825300560 1.3267047939 0.1781013807 -0.4950896395 0.4567879797
H 1.7704323813 -1.2138042415 -0.1981490600 0.1508202769 0.4363844657 0.5930149748
H 0.2638712435 0.4943248970 -1.3805953802 0.0674722345 -0.3408077008 0.4719179549
H 0.1739679143 1.3618406682 0.1691382232 -0.5604569793 -0.3322062681 -0.2742804614
H 0.2997344601 -1.8093391414 1.2559035781 0.2383975629 -0.3404698951 -0.8187769349
H 0.0215806279 -2.2279300959 -0.4712705196 -0.0015410260 -0.2416485525 -0.1674695505
H -1.2660628323 -2.4505766558 0.7491643297 0.0148076611 0.1888104053 -0.4934279033
H -1.5221154562 -0.3932325418 -1.9390600725 0.1330426091 0.0758138833 0.7399247430
H -2.3882959057 -1.5757356842 -0.9388731748 0.9118580352 0.3465709102 0.3425021356
H -3.3465732813 1.0273546902 -1.3849964724 -0.1972576876 -0.3103597217 -0.3104900733
H -3.8667120394 -0.0832230109 -0.0281823916 0.3885289196 -0.0707881945 -0.8114875208
H -3.0662695233 1.7653754476 1.1775207546 0.1879032392 -0.5556471187 0.4541940188
H -1.7501132458 2.0233742685 0.0229690147 0.2708385021 0.5558800459 0.0175139501
H -2.2580470432 -0.5250480473 1.6680633222 -13.0711384625 3.4398312349 -4.7080259528
H -0.8468171813 0.5627051183 1.9758651888 1.6516413429 12.8128024896 0.7579433216
O -3.5615307718 -1.1638063877 4.7404049338 0.3804859950 -0.3080264837 7.0331093746
S -3.2106787042 -0.9596332400 3.2936472628 -7.4628977378 -0.6115941972 0.4119630159
O -3.5791873616 0.4466138507 2.8488397537 -1.4750873595 5.9008703112 -1.5335500992
N -4.0182071095 -2.1423958433 2.3502324398 2.1077721469 -1.6070145670 -5.3833641956
S -5.4283019834 -2.6366921245 3.2345847191 3.4417469370 -1.4342997268 0.1020327593
O -5.0837238981 -2.7464988936 4.6867637009 0.4996846125 -0.5611989680 7.5613984608
O -5.9368734080 -3.9751186921 2.7898834915 -2.6917561748 -6.2130432082 -3.7026376135
C -6.6922522516 -1.3933780098 3.0022745751 -2.2810161359 4.4386986582 -0.7784191161
F -6.9892452508 -1.2797937738 1.6691407830 -1.2659981635 0.0157102600 -1.7188133674
F -7.7663300726 -1.5965343081 3.8151819683 -1.9567089842 -0.4697981328 0.6225063853
F -6.1231642852 -0.1896153199 3.3776005833 0.4650578543 1.6711391520 0.5169060397
C -1.4351362113 -1.0317529531 3.1140535289 4.2787361956 -1.9056179949 6.2066298296
F -0.9454347600 -2.2571030893 3.5029637349 1.3019277437 -0.3624919232 -0.6797163831
F -0.9525458882 -0.0329617948 3.9708027455 0.7623069684 -0.1509985894 -0.1203921143
F -1.0627468941 -0.6613674850 1.8422213063 29.1148751057 -39.1251668254 24.6226256168
45
energy=-60077.4770682748 config_type=IL_pair name=Pyr14-NTf2 Properties=species:S:1:pos:R:3:forces:R:3
C 3.6804372431 0.2931698743 0.3630820702 1.1652966386 -0.3168302016 0.2380124758
C 2.3172467228 0.2367040767 -0.3350330473 0.6224262750 1.2009384327 0.0195496014
C 1.5772974393 -1.0237707732 0.0406434659 2.6874008255 -1.8970417357 0.8450180075
C 0.2410600047 -1.1741607191 -0.5827941165 1.8323318329 -3.8504433703 -2.7554550939
N -0.7252104341 -0.1517064857 -0.2777416173 0.3570524385 -0.5172440128 -0.5416466345
C -0.6053354078 1.0242105145 -1.0803142892 1.2060172045 4.8271408012 -5.0161555297
C -0.8060028734 0.1659912202 1.1173122112 -0.1645689844 1.0854403955 4.5705005528
C -2.1984394356 0.7468930355 1.2603125212 -1.5454101693 0.9691638951 2.0854323467
C -2.9704826137 0.2179154066 0.0709256470 -3.3164987276 1.3607756752 -0.6025169893
C -2.0262127378 -0.7511409755 -0.5322918210 -3.1250417493 -3.8316009530 -0.7152929147
H 4.3610915555 0.8800377166 -0.2646961851 0.2802059574 0.0982128035 0.0454651321
H 4.1059294197 -0.7322587687 0.4665102248 -0.1014540379 0.6267060080 0.1583610065
H 3.6179077893 0.8002848375 1.3431293958 0.0109801937 -0.4177633534 -0.0653869149
H 2.5070095331 0.2340717781 -1.4270880663 -0.4771769643 0.3998988385 0.1698039306
H 1.7798526781 1.1299990994 0.0199094051 -0.1893365579 0.1172704681 -0.6902969992
H 2.2171220766 -1.8630303006 -0.3638694186 -0.8061685403 0.4467421921 0.3241795061
H 1.5882577838 -1.1943561261 1.1348518841 -0.4255705445 0.1987566896 -0.1331420487
H 0.3408212705 -1.1761374445 -1.6976099420 -0.0330182685 -0.1036451676 0.4993784402
H -0.1996628404 -2.1540379563 -0.3104547848 0.1533855415 0.1594667507 0.1977573419
H -0.4163508640 1.9443250190 -0.4901997053 -0.1819429463 -0.4087558267 0.0023709519
H -1.5232137872 1.1824755619 -1.7204237533 0.8693050338 -0.0859430449 0.7865222027
H 0.2527873634 0.9217373003 -1.8094644130 -0.7821432683 0.0712203982 0.7899939112
H -0.7732259496 -0.7744643657 1.7080520296 0.2098791425 -0.9568245713 1.8299430734
H -0.0809227802 0.8957330553 1.4895536579 0.7358676218 -0.1988338475 -0.3640109093
H -2.7017316115 0.3407913766 2.1703482518 0.6868173762 0.6105791179 -0.0504892929
H -2.1907332347 1.8519466580 1.2662519658 -0.1012954902 -0.1960103140 0.3062474639
H -3.2247653097 1.0339507681 -0.6371447666 -0.0304045914 -0.3019855401 0.1724542748
H -3.9321552230 -0.2472103486 0.3732745579 0.4028390861 -0.0275350005 -0.2067264657
H -2.0214903670 -1.6962927150 0.0823891403 -0.3467314613 0.4967516951 -0.8027847880
H -2.1908854103 -0.9616703196 -1.6053928947 0.2809812883 -0.1240748146 0.0944520892
O -0.9690559540 -1.6041636663 3.3789919364 -0.4083822413 8.2265188401 -3.5945230298
S -0.8105866477 -3.0674351303 3.6779706854 -4.5708181447 -1.7378087287 1.6452038913
O -0.8035148883 -3.2565082716 5.1726047693 0.6341027338 -1.0341509306 6.7525280113
N -1.9611639005 -4.0546391115 2.8971806672 0.9307873519 -0.8222886036 -5.8059606160
S -3.2627626256 -4.5467955467 3.8793208098 3.9686220690 -2.0742100645 -0.1190906346
O -2.8795302650 -4.8502680292 5.2967208294 1.4781619101 -0.7438141011 7.1105794829
O -3.8560379736 -5.7886069606 3.2306607643 -2.6449918092 -4.3093702968 -3.4622097248
C -4.5532023433 -3.3095343180 3.8095483104 -3.2329710652 2.8141095790 -0.4273569827
F -4.9173155398 -3.2393785207 2.4734548131 -0.7491519169 0.9201163268 -1.0757139576
F -4.1434275027 -2.1015208799 4.3229264791 -0.1731443047 1.5841813597 0.2119435860
F -5.6041106371 -3.8300893850 4.5387664440 -1.3597840682 0.1379052834 0.6923432935
C 0.8203300257 -3.5430399608 3.1026319194 4.4553467721 -3.5566387417 -1.9170824094
F 1.8158822055 -2.7968077161 3.6813199044 1.1371350869 1.3311345321 0.2123321579
F 0.8712882101 -3.5102898841 1.7186537658 0.5960830432 0.5148773562 -1.5686214164
F 1.0902655922 -4.8671568207 3.4687813362 0.0735996408 -0.7046148179 0.1612917005
45
energy=-60020.0541116463 config_type=IL_pair name=Pyr14-NTf2 Properties=species:S:1:pos:R:3:forces:R:3
C 4.0716866124 0.4836515675 0.1364068495 1.3099562137 0.6409583646 1.4370521833
C 2.8239617138 0.1537001469 -0.6544130584 0.2072789925 -1.9272511417 -1.8341181284
C 1.5906755814 0.1425720086 0.2325842979 0.0131563927 1.0341487318 -0.2985246325
C 0.4147223794 -0.1964774530 -0.6631443047 4.9857684718 3.0504738245 -3.9471226267
N -0.8407322503 -0.2461361121 0.0365429964 8.5995916721 24.5509567154 6.6986039359
C -0.7095173356 -0.6467246738 1.4267944454 -1.4977103649 1.1089678330 5.3178996763
C -1.4685444280 1.0568654827 -0.0179247236 -1.2846026820 7.3057134447 1.2499053409
C -2.6726907371 0.9126522611 -0.9292287494 -0.1251371342 -0.9645042198 -0.8021253959
C -3.0960817798 -0.5071187947 -0.5294749367 5.6362794002 15.3538144986 13.0707174270
C -1.7477247653 -1.1935513992 -0.5866829688 -104.4090233083 35.5984483373 -37.0616062715
H 3.7647325312 0.7300829335 1.1725724120 0.2976865915 0.0368851455 -0.1953701563
H 4.5772562875 1.3874056471 -0.2645940436 0.1599271351 -0.5942555375 0.0883478452
H 4.7617170353 -0.3839600392 0.2238624667 -0.0680934336 0.5699950168 -0.3285368996
H 2.8995986050 -0.8873509055 -1.0840780232 0.1194879487 0.8480943022 0.2255858493
H 2.6930168753 0.8206235279 -1.5279479062 -0.0787014916 0.0905249945 0.3100278078
H 1.6633533773 -0.6270097772 0.9988561793 0.4796740223 0.0498660122 0.5692117723
H 1.4409157834 1.1649008871 0.6309249276 0.0219622812 -0.4129039457 0.5081714097
H 0.6002635300 -1.1626218916 -1.1870444670 0.6505183478 1.0395166896 0.1486083631
H 0.4020452486 0.5889294748 -1.4652689340 -0.3387975971 -0.3272592193 0.4398991833
H -0.4540572682 -1.7098868727 1.4725106084 0.4519235799 -0.8897827583 0.6089425869
H -0.0550015035 0.0273746000 2.0098361947 -0.1492331342 -0.2233077170 -0.1430528385
H -1.7543422097 -0.5676282441 1.8448326930 0.8883471539 -0.0702097688 -0.1059313229
H -0.7605928238 1.8269624453 -0.3674317435 0.1088085049 0.2440019122 0.3624018400
H -1.8715274911 1.3265192212 0.9814743638 0.4218780843 0.2843848179 -0.3038780052
H -2.3663757196 0.8479885287 -2.0004463186 -0.2388095696 0.7613594071 0.3492718417
H -3.4471958746 1.6574254658 -0.7242104572 0.0195774144 0.3904439595 -0.2455755744
H -3.4087369065 -0.5076415338 0.5272673010 -0.0609611185 0.9333167488 0.1383359841
H -3.8220685929 -0.9334904201 -1.2349257200 -8.3929857082 15.4326320182 9.0962745164
H -1.8081367795 -2.1491039325 0.0072342849 -20.5975286226 -6.9854669387 5.1373743778
H -1.4206190953 -1.4089521486 -1.6146260987 -7.3539537342 4.2573213080 -10.1909178646
O -0.9402918120 -1.5495668651 -0.3718701766 119.6818392491 -41.4686727888 31.6098189569
S -0.8902285531 -3.0400622639 -0.3822962685 -2.8282618891 -18.9681231807 -3.5274851899
O -0.9218631576 -3.5011777246 1.0388192099 1.6772426098 -2.5131931798 9.0737723448
N -2.2313467279 -3.7664733613 -1.1890695933 1.8330947067 -5.3581047373 -4.7901943375
S -3.6171562860 -2.8042996827 -0.8537829720 2.1047789168 -7.6067787188 -0.1647878077
O -3.4827619969 -2.3688540152 0.5926151642 -2.5330769192 -0.7699494101 7.4444810592
O -3.6204159698 -1.5934446094 -1.7007427254 -0.0438325739 -18.0961152131 -27.2128024656
C -5.1304114126 -3.7258402799 -0.9582334858 -6.4754316418 -2.3958104717 0.9439854079
F -5.3558249405 -4.2768594716 -2.1927177236 0.0619483165 -1.0066603516 -1.0528021767
F -6.1451351291 -2.7817100060 -0.7561796292 -0.9482996033 0.6690857938 0.0414131315
F -5.2259444435 -4.6344689419 0.0744884871 -0.1509385546 -1.3894406139 0.5121598545
C 0.6514368910 -3.5467418753 -1.0953565181 5.7259719907 -2.4398311332 -2.3573005312
F 1.6540499266 -2.9147358865 -0.3834620819 1.6456176507 0.5654014246 0.6835897216
F 0.7555009006 -3.1859660127 -2.4167954364 0.2166606902 0.4668064448 -1.5673425241
F 0.8064341289 -4.9202409822 -0.9965153289 0.2688530873 -0.8760266819 0.0479139740
45
energy=-60074.0429685847 config_type=IL_pair name=Pyr14-NTf2 Properties=species:S:1:pos:R:3:forces:R:3
C 3.8987235884 -0.2350246290 -0.7405312607 2.2837439473 -0.4794559202 -0.3829949002
C 2.7217556451 -0.2050809626 0.1919229434 -0.0212764860 -0.3554531267 0.9355467162
C 1.4235616556 0.1623656284 -0.5121752932 0.6325812377 1.2532421175 -0.9074885469
C 0.3714520557 0.1449586006 0.5520619980 4.4657686904 0.2852727851 2.6164906939
N -0.9486559134 0.4682807473 0.0963056831 0.6031518776 -0.3816042551 1.3422946895
C -1.0289262873 1.8495336509 -0.2931647034 -0.5449670900 2.0826043988 0.9991077788
C -1.8374770767 0.2723728732 1.2397887483 -2.4851588890 -1.0504511350 2.8658312588
C -2.1704695203 -1.2015380105 1.1043302817 -1.2985300760 -1.3184970198 0.4562625503
C -2.5879296604 -1.1925482525 -0.3636331989 -0.8709917447 -0.5247813622 0.5829824764
C -1.4238735916 -0.4037153651 -0.9491749847 -2.0093706539 -3.1142964419 -4.6190426865
H 4.7978184018 -0.3588158200 -0.0997881696 -0.0604567967 -0.3405877987 -0.4759374794
H 4.0201660342 0.7334106531 -1.2681185887 -0.6382704828 -0.2256671673 -0.5762507041
H 3.8267776850 -1.0841856194 -1.4689829176 0.1531928131 0.7773196226 0.4388185953
H 2.6008177743 -1.2056524741 0.6510178046 0.0513545849 0.1597698477 0.2319713534
H 2.9346367239 0.5315484207 0.9914789006 -0.2188704119 -0.2148691921 0.0187843136
H 1.4828687305 1.2012854916 -0.8988904506 0.1358073544 0.1551488246 -0.4884029987
H 1.2466922990 -0.4850211940 -1.3695347580 -0.2055177659 -0.4925623998 -0.1596965331
H 0.4571944728 -0.7833340885 1.1212721998 -0.7557889204 -0.6011351214 0.0982123061
H 0.6483689541 0.9691966011 1.2730424072 -0.2966635167 -0.7816910812 -0.4536885382
H -0.8005389575 1.9926420985 -1.3802486736 1.4117392761 -1.9248684143 2.2627773625
H -0.4367448758 2.4701905868 0.3814702270 0.4233518353 -0.0143314421 0.1481545424
H -2.1075500688 2.1488209205 -0.1448021928 1.3784048297 -2.1453844819 0.3638731940
H -2.7612956791 0.8505377378 1.0318250873 0.3089911667 0.0874141975 0.6213607106
H -1.3584346642 0.5139278096 2.1932570924 0.1406076416 0.6171996703 0.1443506411
H -2.9931236532 -1.5302509185 1.7631972581 0.3767868166 -0.0361835189 0.1562819066
H -1.2863762857 -1.8421128088 1.1630525137 0.1321874315 -0.1947627135 0.8109194477
H -2.6654177766 -2.2021729207 -0.7877030219 -0.3493213914 0.1023789575 -0.2504602248
H -3.5114369382 -0.5984987094 -0.4115821586 -0.3402912715 -0.4571801937 -0.5952644962
H -1.8346898284 0.1813254153 -1.8015723612 0.9555967617 0.0738465301 0.0495289320
H -0.6778932432 -1.1624454625 -1.2641204117 0.2253006643 0.8709675413 -0.1039013434
O -0.0070635158 3.7921739767 -4.0853940378 -1.3063907928 -1.6279374726 -6.4707877937
S -0.1947137936 3.9900727475 -2.5986068703 6.2230631938 0.8348140929 -1.6742238464
O -0.1644203559 5.4600694548 -2.3421682291 -0.7125164166 7.6510812636 2.6805095456
N 1.0620944291 3.1979942451 -1.7110541584 -0.6794216421 -2.0320199413 5.8198200990
S 2.4540186368 2.9744875917 -2.7027519205 -4.7765867002 -0.1610503313 -1.1748548725
O 2.9111503360 1.5448876835 -2.6733909775 2.7864747273 -7.1684050800 1.6748223998
O 2.1351452155 3.3046789342 -4.1361618897 0.1814609845 2.2273794689 -6.6924906815
C 3.8219682504 3.9940858688 -2.2145984635 4.7181082050 2.7743638436 2.4060384460
F 4.8491500874 3.6914765175 -3.1088864487 0.6402365360 0.3274327741 -0.5239239093
F 4.2744994409 3.6425844385 -0.9452765148 0.4825241165 0.0090703821 1.0473050760
F 3.5103046123 5.3311246135 -2.2297741851 0.0621466932 1.4087522936 -0.1185177844
C -1.7695433937 3.2555686047 -2.1941488292 -5.5315185958 0.9015813742 1.0031851849
F -1.7287269899 1.9366132031 -2.5270827317 -1.3542529761 -2.8955040290 -2.5914035883
F -2.7371131961 3.8844132889 -2.9249497256 -1.3538462128 0.3777847301 -0.6370728934
F -2.0440761374 3.4126823016 -0.8361816097 -2.9678322840 5.5571704592 -0.8693100098
45
energy=-60072.9049732877 config_type=IL_pair name=Pyr14-NTf2 Properties=species:S:1:pos:R:3:forces:R:3
C 4.1089462000 -0.3548929549 -0.0915425232 1.7781174924 -0.3434132037 -0.6653312053
C 2.7692370653 -0.8229649494 0.4347943112 -0.4662556051 -1.0052840337 0.0559500867
C 1.6358084249 0.0735730981 -0.0575610924 0.6430065258 0.9429031123 1.1191247385
C 0.3673956388 -0.4979671474 0.5339945554 3.3283032755 -4.0617921367 0.4042464747
N -0.8246952236 0.2056145994 0.1896267364 0.3850327375 -0.1172296664 -0.5769435578
C -0.8220342058 1.5880880494 0.6148434514 -1.1209109431 5.5546019149 0.4361228741
C -1.9246778530 -0.4662651613 0.8512002020 2.7285593239 -8.1067100067 -4.9151633741
C -3.1161099046 -0.3349930042 -0.0692611168 -0.6714762985 -1.1189910862 0.8772289911
C -2.6124468051 0.3693787664 -1.2863474643 -1.8544027867 0.1791724139 -2.5100182729
C -1.1197617925 0.1146080430 -1.2170627699 -0.0547793188 0.8804365634 -5.4089221964
H 4.9329787922 -0.6224138142 0.6041200050 -0.3147351816 0.1880779647 -0.2031449797
H 4.3036058564 -0.9143679200 -1.0285303670 0.2022563341 0.6861351491 -0.0052315840
H 4.1291070270 0.7407720005 -0.2612567354 0.0769710438 -0.4111085788 -0.0572363865
H 2.5164441739 -1.8367499125 0.0512788911 0.5447077553 0.0832441811 0.5889736706
H 2.7890270712 -0.8181453605 1.5338815059 -0.2620515915 -0.2323416769 0.1113309944
H 1.6162665566 0.1252060446 -1.1442523210 -0.0450033492 0.1621772730 -0.4844283150
H 1.8115102535 1.0589816811 0.3993271166 -0.0087206280 0.3134139532 -0.5243109304
H 0.2269704622 -1.5463720985 0.1490248593 0.0906984208 0.7516839064 0.2140713662
H 0.4636406473 -0.6088997492 1.6319869469 -0.3228390513 0.4342170178 -0.0607036676
H -0.9345836486 1.6608070325 1.7162593143 0.1914552863 -0.0998169989 -1.1204688587
H 0.0884426824 2.1459527351 0.3273382203 -0.0961115440 -0.4380703780 -0.1840381044
H -1.6924328138 2.1274337440 0.1890741976 0.2932561735 -0.4298063237 -0.1739443000
H -1.7105909559 -1.5650402487 0.9642930787 0.4416282798 0.8291868348 -0.3122252786
H -2.0957956690 -0.0289597808 1.8518333891 1.9905383863 -1.8205496527 -5.9181090697
H -3.9106212257 0.2109135049 0.4781363922 -1.1890025483 0.5215087277 -0.7685395673
H -3.5385635640 -1.3245768619 -0.3377010580 0.2855338685 0.3024252053 0.1753893764
H -2.8702846902 1.4431228428 -1.3324853104 0.1977939752 -0.0740989346 0.0927151423
H -3.0833947894 -0.1038015011 -2.1863639374 0.6793955218 0.5033860895 0.2829863593
H -0.9160261404 -0.8941723540 -1.6066764626 0.3563743205 -0.1031029788 0.2484062600
H -0.5873615700 0.8761306771 -1.8170245646 0.4891809755 -0.2410787866 0.1102639421
O -4.9356840746 -1.2389489569 2.7204115767 -1.2835481214 -6.6596158460 1.9462875741
S -4.5435111236 0.1968510566 2.5200539790 1.7560782981 -1.7282222791 0.0553504495
O -5.1741125595 0.6273106607 1.2032430337 -2.5453630437 3.4467575979 -5.3636328474
N -2.8701149426 0.4463720362 2.3662678657 -5.9239628057 9.3742306303 7.0525019157
S -1.9137065104 -0.1815515805 3.6220546962 -1.8047734348 -2.8717115722 1.7077484212
O -2.5974844831 -0.3506953380 4.9245963569 -4.3223896458 0.3173330849 7.6596684162
O -1.3057862337 -1.5256784553 3.2768027416 3.3113007063 -5.2752924227 -2.3201481892
C -0.5280976057 0.9463338133 3.8254224064 2.3142833259 4.6250085808 1.1762988815
F 0.1893937525 1.0184096116 2.6591501513 2.7235469719 -0.3297495558 0.2049470729
F -1.0847720982 2.2194621550 4.0026615274 0.1446938423 0.8963733486 0.4348958214
F 0.2632940691 0.6041697561 4.8808116509 1.0230286363 -0.2299460464 1.0143787421
C -5.3223902782 1.1694248970 3.7654111011 -3.8184737526 4.0362435526 4.1790228424
F -4.8360466411 0.9563217003 5.0292025275 0.7558947178 0.1632328065 1.2849221399
F -5.3138753662 2.5237023610 3.4301454714 0.3455800425 0.7847422856 0.1178716203
F -6.6633330436 0.7822066534 3.7828459434 -0.9708149711 -0.2965501455 0.0142454819
45
energy=-60038.8926024647 config_type=IL_pair name=Pyr14-NTf2 Properties=species:S:1:pos:R:3:forces:R:3
C 3.6802762966 0.1467110000 0.3332546554 1.0560426881 2.2126387295 0.0908535115
C 2.2862164437 -0.4836259084 0.4712184749 1.9006757344 -0.1017345664 0.7419052821
C 1.6278738166 -0.2145215620 -0.8548300268 -2.2497580624 5.1206636265 1.2189189457
C 0.2506194152 -0.7229072975 -0.9991698314 -2.0376795528 24.9678691183 5.6655957282
N -0.7572523979 -0.2681604164 -0.1229447158 -3.9175604523 2.5155870972 1.9467509842
C -0.9312919126 -1.2383581887 0.9634113657 -0.3448597549 -3.4992029588 3.3466263511
C -0.6592417898 1.0324810080 0.3993075417 0.6608296297 6.6271843986 5.5104712187
C -2.0371085339 1.6704330642 0.4027872613 -1.6601126349 2.3248932959 -1.0746965095
C -2.9801239184 0.5695956615 -0.0558567522 -1.5794975114 0.0620421963 0.1653866583
C -2.0183533967 -0.2796047864 -0.8442375269 -3.2304313738 0.5523188345 -3.7190032142
H 3.5675157152 1.2556502238 0.4160423552 0.3298861183 -0.5115724114 0.4867895538
H 4.3832420294 -0.2459763384 1.0796551451 0.1320608558 0.2238439836 0.0744825485
H 4.0792085532 -0.0178479031 -0.6899518428 -0.1395820580 -0.3563022479 0.7488531071
H 1.8272048993 0.0022930259 1.3324652177 -0.6659766099 -0.1848537128 0.5352005222
H 2.4870046499 -1.5607556927 0.6314717884 -0.8153720481 0.2300204467 0.3290414918
H 1.7749747522 0.8488574881 -1.1178304113 -0.5727295777 0.2104424692 0.3131808161
H 2.2427081231 -0.7695442904 -1.5988592251 -0.3782718160 0.6071799168 -0.1557202269
H -0.0354859851 -0.5870158457 -2.0643004823 -2.9121734733 3.0706833105 -0.2486550933
H 0.3238062219 -1.8475961278 -0.9014735109 -51.1045450426 1.5246651339 113.1288671062
H -0.4218848776 -2.1986913306 0.6712450439 0.0354782774 0.6464093334 -0.0277968188
H -1.9812089707 -1.5228143708 1.1294537188 -0.1467341870 0.4385768993 0.0397161984
H -0.5026639113 -0.9079569352 1.9134788880 0.2252940097 0.2209085177 0.1352334015
H -0.3297955513 1.0442822179 1.4800694955 0.2361238758 -0.3383048840 -1.1409605517
H 0.0107480709 1.7248121671 -0.1097038757 0.7825216310 -0.4591699661 -0.8494562937
H -2.3114970708 2.1247886818 1.3517092340 -0.1068894621 0.1101786305 0.5326101047
H -2.1249715533 2.4628097757 -0.3787055287 0.4349642513 -0.1173165880 0.5619390914
H -3.4681260753 0.0529139357 0.7729960809 -0.1164257274 -0.3318795204 0.2486013883
H -3.7542120426 0.9252336409 -0.7523916200 -0.1895137418 0.1283948112 0.2512970513
H -2.4048278981 -1.2830363522 -1.0596390068 0.3571372667 -0.3650191038 -0.1756315271
H -1.8233531018 0.2875514559 -1.7986719098 -0.1739389085 -0.8399101417 0.4591994096
O 4.8893418779 -3.0236925320 -0.5566158780 4.3089137965 -1.6653569399 4.4768400547
S 3.9731498106 -2.7646835246 -1.7350448250 -0.7728873959 -4.6302867083 1.4430000403
O 3.2146144137 -1.5193424133 -1.3792583733 -0.9489184190 3.1513664891 -1.1671999300
N 3.0088585510 -4.1358017243 -1.9004999833 1.8283464192 -3.1468060823 1.8242035435
S 1.5158324963 -3.9721342801 -2.6601931364 2.3848624360 -4.6697131371 -1.0072218584
O 0.5237365442 -4.8515430035 -1.9160999088 -4.2186842280 -2.5887219516 4.2348765923
O 1.5519517656 -4.4961312493 -4.0774082535 0.6632349920 -1.2994886500 -6.7478646645
C 0.8299052503 -2.3477544858 -2.6680406285 0.9821565263 -2.0070989502 -14.7784405431
F -0.4019105464 -2.3902085048 -3.3338809117 -0.6431797778 -0.0590308657 0.0705567895
F 0.5585413645 -1.8911984755 -1.4112923550 57.7093451114 -30.1913130505 -111.2316478258
F 1.5973724076 -1.4600399178 -3.4124916532 0.3610558336 0.9711106986 0.1453303991
C 5.0308188238 -2.4394507828 -3.1128275499 4.3178655075 0.9450798194 -4.7639264936
F 4.3767451348 -2.2414367863 -4.2943886960 -1.1881248528 0.3099228497 -1.9062319645
F 5.9456442978 -3.4588600417 -3.2979903299 0.7568379877 -1.1227801985 -0.0988732885
F 5.7614634295 -1.2963929187 -2.8355523163 0.6583276626 1.3081814676 0.3604446313
45
energy=-60076.5080692769 config_type=IL_pair name=Pyr14-NTf2 Properties=species:S:1:pos:R:3:forces:R:3
C 3.5182092649 -0.2865312416 0.7678954295 0.5072239368 -0.4038748329 1.0886193987
C 2.1648706989 -0.7186117963 0.1806259395 1.2677359882 -2.2685804338 1.4018943301
C 1.5576098345 0.4182595244 -0.5838681624 2.7600047949 0.7805334646 -1.8295582243
C 0.2344874249 0.1065048540 -1.1931318841 2.0988771077 2.2304826647 -5.4223637769
N -0.8152091051 -0.2731538326 -0.2874592424 -0.1192056943 -1.5871736744 -0.9006734458
C -0.7440327284 -1.7169366819 -0.1567294512 0.6423717055 -5.9397815375 0.0400327561
C -2.0976108493 0.0475917520 -0.8911741357 -5.3225271327 0.7692327455 -2.0143622866
C -2.5062996927 1.3837033308 -0.3039718303 -1.2010230835 1.3778870892 -0.4204183422
C -1.9819425168 1.2880787359 1.1117150188 -1.0343252937 2.0476143701 1.4027413534
C -0.7895091282 0.3811556034 0.9900381487 0.0592347964 -0.1450130018 6.2967551949
H 4.3009260249 -0.3216348406 -0.0122817005 -0.0324867733 0.4536797632 0.2928471275
H 3.3536610177 0.7107499946 1.2030528607 0.7035617216 0.1184742720 -0.0617307735
H 3.8096189078 -0.9643254102 1.6185154363 -0.2032331294 0.5480017007 -0.7994301980
H 1.5594586511 -1.0397481431 1.0499618511 -0.0874026297 0.0753280305 -0.2564306755
H 2.4033519474 -1.5953659345 -0.4569539177 -0.7411793876 0.1358229168 -0.0122646792
H 1.6313273241 1.3273376616 0.0066734078 -0.5776917660 0.5789669492 0.3243566810
H 2.2636006638 0.5991825620 -1.4576550110 -0.9300280782 0.0143610927 0.7219888307
H 0.3810703002 -0.6923916419 -1.9757731400 -0.3721935802 0.4732680307 0.7980816849
H -0.1564186057 0.9685026662 -1.7738660232 0.3484440349 0.1864917343 0.2869096559
H -1.6620961701 -2.1459739225 -0.6012803096 0.1847072538 -0.1832005092 0.4615474851
H -0.6209266545 -2.0327255911 0.8998340429 -0.1891085239 0.0622338199 -0.3752938650
H 0.1013335659 -2.1585655348 -0.7508579486 -0.5164195431 0.5085827464 0.6976485364
H -2.8866796027 -0.6838254765 -0.6151560664 0.5782684606 -0.1028141150 0.0913499522
H -2.0763327424 0.1074907845 -1.9846622697 0.4824078604 -0.4336358227 -0.3212966417
H -2.0322602605 2.1838372115 -0.8910176821 -0.1935848799 0.3520795276 0.1497045975
H -3.6059207808 1.5169654918 -0.2388039698 0.3510374317 0.0298727251 -0.7512834385
H -1.7292857199 2.2841433621 1.5432886182 0.0716751318 -0.4673813506 -0.2158054561
H -2.7714211774 0.8665647835 1.7692759033 0.4279954759 -0.0767762430 -0.0655264186
H -0.9415098566 -0.4309091908 1.7631959129 0.5559150900 1.0386289678 -0.0077565955
H 0.1379299651 0.8706309199 1.2705701752 0.7078375522 0.1654334218 -0.3581169417
O -0.6983992936 2.0962086626 6.4175384592 -3.4132807348 2.2201762223 5.6569579887
S -0.0430403929 1.3363417020 5.2874171022 4.7031776903 1.7140320171 1.6812046485
O 0.2533773959 2.3488215805 4.2149906156 1.3526648972 4.0439017025 -6.3616500504
N 1.3644796747 0.6057344099 5.9100242459 0.6521367898 -0.2933516556 4.8999002167
S 2.4490425025 0.0102325329 4.7423245021 -3.8505546350 -1.7859404086 2.2522273987
O 2.8764364214 -1.3774195789 5.2007972598 2.5134389648 -5.1661577487 2.5414899747
O 1.8184309943 -0.1650407094 3.3926978245 -3.2153419627 0.3047308246 -7.6120602071
C 3.9523665510 0.9490730789 4.6136075905 5.1220634880 2.3249676885 -0.8155159131
F 4.7000805390 0.3094628361 3.6144094975 0.6361798602 -0.3520165307 -0.7682249689
F 4.7061586940 0.8591516451 5.7660510545 0.6313389619 0.5565469973 1.0819499566
F 3.7458619576 2.2335074286 4.1892160412 0.1015379930 1.9563005795 -0.0928241228
C -1.2191493777 0.1602816349 4.6636568282 -4.2165007635 -2.7733530817 -1.6189086863
F -1.6272229898 -0.7038653031 5.6430395503 -0.4026522383 -1.7510862407 0.7293806057
F -0.7544538584 -0.4551416283 3.5220526252 0.3824696123 -1.8731957583 -1.2510212710
F -2.3470990254 0.8829949278 4.2801658826 -1.2345191230 0.5534745781 -0.5691286042
45
energy=-60076.7320560065 config_type=IL_pair name=Pyr14-NTf2 Properties=species:S:1:pos:R:3:forces:R:3
C 3.4350604356 -0.1013541364 -0.4760564766 1.6434914789 -0.6146235805 -1.9336068112
C 2.7919444209 0.5621915206 0.7013283698 0.1199955757 0.6314219963 2.2028615924
C 1.4113005766 -0.0405077523 0.9958756764 0.2372522184 0.6646702841 1.1518880606
C 0.5767587535 0.1758978470 -0.2391399804 3.4059016656 1.2452272822 -0.2838472468
N -0.7621240749 -0.3447303849 -0.1089915416 0.6165633257 -1.2045340506 -0.1513712064
C -0.7206028317 -1.7778712236 0.1249840808 -0.1624367845 -5.0676383107 0.1913211332
C -1.4607188110 -0.0015666536 -1.3352003958 -2.3096511074 -0.2734992283 -4.9698686277
C -2.3986795079 1.1234707456 -0.9465375426 -1.2066845261 0.5635004134 -0.7948341985
C -2.8784505289 0.5930223238 0.3987678007 0.2410919584 -0.4406295606 -0.1372217212
C -1.5081445563 0.2307272860 0.9879938269 -2.3228987178 3.2944849259 3.7526083501
H 3.0217856618 -1.1170568523 -0.6809872602 0.4236421814 0.5238925265 0.0988795000
H 4.5312958124 -0.1791375079 -0.3051785803 -0.4574260950 -0.1798231579 -0.2424146995
H 3.2992390619 0.5511869396 -1.3625954978 0.0447583799 -0.5769304880 -0.0320665716
H 3.4029568408 0.4257215722 1.6153517317 -0.0662400918 0.0514447527 -0.1821822308
H 2.7200436945 1.6440957519 0.5232594812 -0.1281814101 0.1722096801 0.1182739235
H 0.9285456264 0.5178789129 1.8202046803 0.2849165324 -0.4627271245 0.2043743678
H 1.5371811389 -1.1074902881 1.2398782853 -0.1392755127 -0.0317458593 0.2781279044
H 1.0454001273 -0.3285156699 -1.0838105983 0.0394682606 -0.2006380579 -0.5159005683
H 0.5158557876 1.2451624675 -0.4575079572 -0.1424459491 0.4548746291 -0.1407858840
H 0.2121706608 -2.2536335860 -0.2585225468 -0.6498544808 0.2721814386 -0.2150389665
H -1.6357310067 -2.2054083228 -0.3427439358 0.6314826276 -0.2006470969 0.1410549526
H -0.7852184998 -2.0172055269 1.2061150077 0.4169488760 -0.5619513766 0.4535260308
H -2.0399021515 -0.9120669438 -1.6536673128 0.4239160137 0.8203384557 -0.0789600973
H -0.7668370254 0.3069657447 -2.1443758512 -0.0115917317 -0.4212499111 0.2525375814
H -3.2358584888 1.2300989211 -1.6626189178 0.4199597405 0.2917062687 -0.0420846725
H -1.7994945181 2.0333653595 -0.8352548798 -0.3303214085 0.5617497178 -0.1061740693
H -3.3989394929 1.3225444396 1.0117336939 -0.5532122836 0.1118687495 0.3865726684
H -3.4189698891 -0.3399774390 0.1995642906 -0.7721146346 0.1044822396 0.4372177904
H -1.5834238059 -0.4453450419 1.8532175894 0.3843573558 0.1989166101 0.1688979447
H -1.0364434100 1.2095374975 1.2149147604 0.0938774892 -0.4807803284 0.6198697130
O -1.1089558184 -3.6130010290 5.3989107237 1.3286641250 3.9880525555 6.4872185012
S -1.5521263521 -4.2259828646 4.1042577073 5.3594769505 -1.5035884055 0.2636633374
O -1.5123689827 -5.7263111200 4.2175363811 -1.3011495730 -7.0809276192 -0.1959813553
N -0.4532895225 -3.6668854663 2.8959698853 -1.2658840807 4.8986800287 -4.3108585835
S 1.0000606450 -4.5754348781 3.0478282701 -4.6866120901 -0.5438839440 -1.1157349500
O 0.9091849976 -5.6788721449 4.0454756752 0.3811011142 -5.2501729722 6.0745672657
O 1.2943875888 -5.1544274950 1.6948619972 2.0229611353 -1.6486482500 -7.1825243774
C 2.3491020186 -3.5198921605 3.5893705046 3.3245465032 2.0334762384 1.8210537492
F 2.5820492482 -2.5009901280 2.7012273372 0.8193226649 1.7633397507 -0.9168371325
F 3.4547610678 -4.3668734258 3.6783928374 1.0098938534 0.1149449477 0.0749168628
F 2.0320773515 -3.0479296935 4.8443134414 0.2673937535 0.9998758004 1.1846003764
C -3.2018354537 -3.7242607701 3.6857343275 -3.8476536784 2.1418094656 -1.6977095379
F -3.2138335792 -2.3452020964 3.6257212281 -0.8567915350 1.9433672744 0.1168774410
F -4.0713139578 -4.2186998655 4.6174723570 -1.4748117132 -0.2581651661 0.9507681180
F -3.4911761409 -4.1943928326 2.4409082707 -1.2606517071 -0.8485495356 -2.2113967041
45
energy=-60077.0325818789 config_type=IL_pair name=Pyr14-NTf2 Properties=species:S:1:pos:R:3:forces:R:3
C 3.9754362403 -0.5584562459 0.4871407965 3.2292198715 1.2453075140 0.7946508038
C 2.7464612600 -0.5171122028 -0.3586980856 -1.3496453845 -1.5348186474 -1.1983959197
C 1.5440529176 0.0396675213 0.4151770682 0.4123545327 -0.6381233922 0.9295374618
C 0.3789287055 0.0287132551 -0.5430166913 3.4854850832 -1.3563673989 -2.0492191913
N -0.8525958544 0.5212254987 0.0083211298 -0.2388104950 1.3283639997 -0.2532610500
C -0.7724662301 1.8864154229 0.4782097037 -0.5422422612 3.9549784460 4.6561933512
C -1.3917957769 -0.2801261689 1.0640163481 -2.4577181026 -2.5364349061 5.5813490836
C -2.4017273887 -1.2346194356 0.4763879534 -1.0644967109 -1.4386703145 1.1955303266
C -2.8721374860 -0.5058172665 -0.7378230941 -3.0103549265 -1.7627919535 -2.2782006285
C -1.8198267828 0.5043223082 -1.0800898134 -3.5150111219 0.4695168516 -4.4381954363
H 4.3353083033 -1.5875824631 0.6376466695 -0.0318778634 0.1185558388 0.3511882208
H 3.8681742681 -0.0137359518 1.4538590185 -0.1503955409 -0.6562732727 -0.3277621969
H 4.7913909687 0.0035827039 -0.0405693250 -0.3774734892 -0.5995630916 0.3954189673
H 2.5140219247 -1.5623636960 -0.6910275205 -0.0657013970 0.6274143467 0.1122336373
H 2.9017787099 0.0566461007 -1.2800924874 -0.0125232329 0.3724602051 -0.0482356786
H 1.3252415815 -0.5997392709 1.2942681779 0.1975563692 0.0884623425 -0.1758060939
H 1.7820057353 1.0413450596 0.7761604077 -0.0275433361 0.6930456953 -0.1423148337
H 0.6256872297 0.6500807301 -1.4275777757 -0.0833236181 0.2249031664 0.2490126375
H 0.1923121993 -0.9974476780 -0.8954837233 -0.0652005956 -0.1910024620 -0.0327288177
H -0.4306912637 1.9922462359 1.5165478614 0.4097098861 -0.7530315372 0.2022985951
H -0.2290261606 2.5022465951 -0.2601715863 -0.0121098929 -0.5597343180 -0.7177801014
H -1.8264523904 2.2771734378 0.4683002739 0.9408885861 -0.1597464470 0.2581240334
H -1.9715174963 0.3687774957 1.7834367034 1.0121459971 -0.2729550757 -0.5690228700
H -0.6673475728 -0.8908345592 1.6198718309 0.6528375079 0.6860392028 0.0975085946
H -3.2833549105 -1.3580980626 1.1507163934 0.9138406527 -0.5554862707 -0.0269082878
H -1.9076804925 -2.1911733708 0.2320695433 -0.4413801753 -0.0748200615 0.0864977266
H -3.0045797421 -1.2844363404 -1.5396144617 -0.0833452275 1.0425590883 0.2303859331
H -3.8611443082 -0.0106322167 -0.5905963092 0.5062743808 -0.3371375107 0.0595462517
H -2.3003573417 1.4979150129 -1.2379538423 1.0746081010 0.0196160809 0.0449615725
H -1.3880988461 0.2218175513 -2.0504405501 0.6456229485 0.2890455267 0.1507549398
O -0.3282926914 4.8084887768 -2.7825235398 2.0109964829 3.5807550735 -6.9339361322
S -0.7499207903 4.2653138134 -1.4617441579 4.4951157949 1.6736133054 -0.2367403236
O -0.8626186555 2.7790488009 -1.5895138858 -1.1370014832 -7.3520923024 -2.3941030971
N 0.2537227837 4.7171400767 -0.1613536135 -2.4354700900 3.4455470121 4.1379338613
S 1.8415923128 4.1128999657 -0.2332822466 -3.3662734153 0.2032084861 1.1330929829
O 1.9841179619 2.7932608181 -0.8997006639 0.5045066952 -7.4240019099 -4.8564373716
O 2.3440677955 3.9611995721 1.1780914613 2.1077945670 0.3740583290 6.7955511308
C 2.9326417239 5.2865448926 -1.0413102444 2.8512460271 3.5169317358 -2.6843476930
F 4.1870974367 4.7102997730 -1.0509279004 1.4462329732 -0.4697560046 -0.2071083013
F 2.5305368043 5.4944078385 -2.3564847094 -0.0412726650 0.6333611991 -0.6953479642
F 3.0201600169 6.4637433858 -0.3212080332 -0.0390042441 1.1528949801 0.1396312472
C -2.3750552653 4.9367075696 -1.1140041902 -3.3689763248 2.2884798076 2.6186201708
F -2.2154724273 6.3032731991 -1.0254572103 -0.4907607748 1.3538951229 0.0924606435
F -2.7230336725 4.4263233811 0.1342410426 -1.2091752179 -0.2877622417 0.8253716553
F -3.2871970929 4.6277679385 -2.0817950199 -1.2938543780 -0.4174549210 -0.8798960248
45
energy=-60023.8582440427 config_type=IL_pair name=Pyr14-NTf2 Properties=species:S:1:pos:R:3:forces:R:3
C 3.0947688132 -0.9364605721 1.0751054979 -0.3231726126 -1.5474142121 0.0101530156
C 2.7978529737 0.5498351778 1.0119922463 1.8777540395 -0.1076025461 -0.7218846311
C 1.5185863420 0.7942294097 0.2506736882 1.1608614662 1.5787225401 -0.7554820075
C 0.3205905027 0.1453692065 0.8480725662 0.7059875013 -1.1927055696 3.8954277860
N -0.8559482694 0.4371835936 0.0474109006 0.5574815312 -3.0102673341 0.5015630118
C -0.8501491915 1.8575692603 -0.3010462534 -13.2425227826 -139.3198956066 74.1278038906
C -0.8713237084 -0.3986436364 -1.1367352408 -0.1751786094 -3.0819709725 -3.1494016577
C -1.6195709144 -1.6482813504 -0.6555596108 1.3738906061 -1.7702791266 -1.3382946566
C -2.7165049065 -1.0446978315 0.1512524657 -3.0156837693 -1.4194386487 -0.0519221077
C -2.0739828871 0.1561101339 0.7794217514 -3.9102091432 0.1964910961 3.2712157320
H 4.0751102304 -1.1053094054 1.5372805515 0.0329747538 -0.2907906145 0.0615659707
H 2.2951984478 -1.4352577174 1.6630398957 0.6545153426 -0.0839426813 -0.0037186182
H 3.0724658254 -1.3888922516 0.0572348559 0.2270411301 0.2211543761 0.4710709415
H 3.6046441376 1.0078469171 0.3930839217 -0.2044916314 0.1876048651 0.6650143926
H 2.8115866537 0.9628096326 2.0204215516 -0.1513005086 0.4736447899 0.3355987331
H 1.3574599570 1.8951709314 0.2728532503 0.2796606137 -0.7053534882 -0.5327952968
H 1.6694826316 0.3939761733 -0.7706954248 -0.0461190979 0.5920553139 0.0277698345
H 0.4140467272 -0.9565898730 0.9388305118 0.1129645966 0.2583554813 0.1750901536
H 0.0859962457 0.5907753500 1.8596248606 0.5525248579 -0.5319485248 -0.7037230522
H -0.5805281846 2.4338477890 0.6086655509 0.0692192554 -5.5265292474 11.2320643881
H -1.8402610371 2.1627768064 -0.7092032776 -13.7842581623 -13.9231746790 2.1262318355
H -0.1315270974 2.0969074009 -1.1065044714 17.0313662391 -12.0084145283 -9.7447108626
H 0.1079684149 -0.6923103273 -1.5060658617 0.7948749536 0.3665368870 0.0469289295
H -1.4320746424 0.0948995153 -1.9504763624 -0.8919762089 0.7334325272 0.0591459403
H -0.9138933275 -2.2495504512 -0.0349912210 -0.5166919020 -0.1080386170 -0.3914262028
H -1.9855375835 -2.2254451795 -1.5268166610 0.1997140091 -0.1556167680 0.3727656145
H -3.1347713503 -1.7202390869 0.9201805474 0.0161622491 0.0240856166 -0.2174817120
H -3.5375557362 -0.7556896236 -0.5552959146 0.4215257709 0.1149555659 0.5919781237
H -1.8943878027 -0.0207156565 1.8640339800 0.2675996049 0.3123417296 -0.4483841985
H -2.7877412640 0.9987756649 0.6649988438 0.6092064069 0.2452659192 0.1919756688
O -3.0973814323 1.1737245320 -2.0604308847 -0.5662437224 -7.5245181139 1.7444162709
S -2.8632794227 2.6429902447 -2.2452833264 -6.6175320870 0.7488538686 -5.2799809620
O -1.9609344285 2.8339054822 -3.4311212595 4.8560632017 1.7944958525 -5.1628507068
N -4.2806548383 3.5560476110 -2.4267603613 1.3894716828 5.3757845413 -0.3449727692
S -5.7477943817 2.7302107501 -2.2062847867 1.7349920132 -0.4259439083 -2.5332135557
O -5.6465606570 1.2813831611 -1.9338105627 0.7139713425 -8.4550302247 2.7132470380
O -6.5790283045 2.9580333212 -3.4366939667 -3.8369430207 2.0932596231 -5.7406156745
C -6.6122553361 3.5648887583 -0.8753306928 -0.5875892047 3.3213427364 4.0550678985
F -6.8207332945 4.8854948824 -1.2640947370 -0.7619300034 0.6302950368 0.1811228521
F -5.7084274901 3.5708875397 0.1953752283 0.0548755260 0.1895816373 1.1585175508
F -7.7589715178 2.9150550144 -0.5169176809 -1.4282808540 -0.3050441186 0.4920962885
C -1.9827014308 3.2676995542 -0.8103925713 -9.6281858700 13.6521590080 2.6541724424
F -2.7293464271 3.1641073768 0.3265916701 -2.5577112253 2.2276439840 3.3773683959
F -0.7691576649 2.6218106937 -0.6670549624 25.8614803537 164.9687280804 -77.6148292463
F -1.7460494723 4.5973451289 -1.0923719996 0.6928006332 1.1837308943 0.2081455004
45
energy=-60076.8478136073 config_type=IL_pair name=Pyr14-NTf2 Properties=species:S:1:pos:R:3:forces:R:3
C -3.1574423843 -0.2233361290 0.6420944282 -2.1257184774 -1.3410627699 1.1258353226
C -2.2139633609 0.9485545969 0.6224470514 -0.4009377699 2.1489281519 3.0400055535
C -1.4078796359 1.0873896929 -0.6270206328 -1.5642730752 3.0242114832 -2.0256815505
C -0.5156167169 -0.0456804257 -0.9444048798 -3.4032092099 -1.8017778008 -4.7718001093
N 0.5119093284 -0.3739098892 -0.0050425127 0.8162499391 -1.0498775694 -0.0291153591
C 0.1128654197 -1.2919632358 1.0349634900 -1.2993230893 -5.5123308937 2.6768012617
C 1.5530421240 -1.0676142524 -0.7830119230 2.6216160926 -4.1103623581 -3.1536346256
C 2.8494624942 -0.3891144417 -0.5189346666 2.4936599171 0.7150017592 0.0751326366
C 2.3965218029 1.0294005178 -0.2264501565 0.6641971430 1.0555460874 -0.0339099135
C 1.1622040987 0.7415024389 0.6128216131 4.0981779811 4.2968151765 1.8654066463
H -4.2143347662 0.0903096736 0.4765266857 0.5685487195 -0.2505964627 -0.2641070494
H -3.1427336311 -0.6731381385 1.6612990046 -0.0747299773 0.0307901473 -0.5402428594
H -2.8935946342 -1.0113497759 -0.0709812957 -0.1191151620 -0.0874833814 -0.1663358460
H -1.5533645401 0.8535951291 1.5207162064 -0.0109225522 0.2492411634 -0.4451031645
H -2.7996294474 1.9122692206 0.8077708486 0.7810099451 -1.1736375884 -0.4049653980
H -2.1472696618 1.1729719496 -1.4849609498 0.9526975877 -0.0976010233 0.6134860216
H -0.8615672706 2.0519897269 -0.5953864364 -0.0116868616 -0.2759481347 -0.1874529804
H -0.0377991085 0.0583572298 -1.9532185776 -0.4381702911 0.5673980496 0.7134103720
H -1.1441221562 -0.9828676989 -1.0424430931 0.5704050523 0.8152754130 -0.0126416823
H -0.7772149675 -1.8440827179 0.6928343609 -0.0932431371 0.1198645045 0.2444274220
H 0.0140785167 -0.8283376829 2.0383906302 -0.1419103534 1.5544899098 0.6851883808
H 0.9269269784 -2.0651038685 1.1295135156 -0.7687531276 0.8283021627 0.2968475559
H 1.3663134194 -1.0294914808 -1.8670679683 -0.4199189658 0.0409588020 0.0704652353
H 1.6238118365 -2.1444792312 -0.5075907402 -0.4263481754 0.4820180820 -0.2520395009
H 3.3284385419 -0.8010981444 0.3932425324 0.1550783101 0.0533487813 -0.4439420432
H 3.5359057500 -0.3737149591 -1.3895511725 -0.1101387962 -0.6400180960 0.3509445871
H 3.1780329635 1.5449570112 0.3420322938 -0.1403805965 0.4029673017 0.2164950721
H 2.1749591277 1.6019733627 -1.1260705180 -0.0096984808 0.2202760700 -0.5845320552
H 0.5590158267 1.6298801272 0.7778064253 -0.6833985497 0.0171102145 0.0502752423
H 1.5730440529 0.4221313951 1.6072690518 -0.7024624575 0.2982578965 0.6379620305
O 0.2512295232 2.8649031094 3.3138517375 -0.7175867997 6.0101504027 -2.5150190124
S 0.2231392370 1.4989535741 3.9647644160 5.1479405341 2.6002530542 1.6803154845
O 0.4645534629 0.4815004730 2.9110557950 -1.4328183467 -7.1980783368 -5.5246620001
N 1.4461619861 1.4863197828 5.1655193953 -0.8104132319 2.6335572616 5.1394261528
S 2.8311915390 0.5810308234 4.6823249932 -4.6759354739 -0.8142030810 1.1291387234
O 2.5728888471 -0.0098312569 3.3390291191 0.7546723980 -3.1360900457 -7.9019002599
O 3.0513834108 -0.4747354855 5.7274764297 1.6814691077 -4.3975210712 5.3049240882
C 4.2833570058 1.6040239405 4.6023846256 4.5275642438 3.5902409184 -0.2485356026
F 4.1131253843 2.6293011199 3.6926269453 0.0357549703 1.2096979049 -0.7711938216
F 4.6173004802 2.1119250938 5.8382829401 0.5211663373 0.6797073651 1.0763480846
F 5.3214117462 0.8033263399 4.1475735173 1.0874181202 -0.5905810106 -0.3241786885
C -1.3945466136 1.2984075533 4.6725287927 -5.2614891345 -0.8067520652 2.7163333950
F -2.3172010393 1.3204505902 3.6340210729 -0.8919845855 -0.0985799858 -0.9735493007
F -1.5190025041 0.0873257744 5.3245126282 -0.3838188474 -0.9147821708 0.8619212608
F -1.6919856140 2.3609546550 5.5008234330 -0.3610946077 0.6453193387 0.9869142496
45
energy=-60018.0914505713 config_type=IL_pair name=Pyr14-NTf2 Properties=species:S:1:pos:R:3:forces:R:3
C 3.5087877836 0.1354416798 0.9307229222 1.4196775535 1.2285713855 1.0330135893
C 2.7166465686 -1.1341574388 0.7107683303 1.1572374372 -1.7671897469 -0.9371287633
C 1.4158730955 -0.8197860986 0.0135002144 0.4270804783 -0.9543616998 -2.6536409799
C 0.5214467875 0.1130687489 0.7583158338 3.6227858057 0.1273417008 2.7610649722
N -0.6800628734 0.3260502915 -0.0179176638 1.7968205431 -1.6599295012 -2.1833952960
C -0.4516255098 1.3960759233 -0.9414508803 1.7724165550 4.5577139564 -3.7903251440
C -1.1280855821 -0.8885829757 -0.6657993773 -0.6650202969 -3.1869535467 -3.0341135041
C -2.5537060466 -0.5999134597 -1.0805478669 -1.9313841897 -0.1819590580 -7.5843344810
C -3.0073940673 0.4265156009 -0.0874702721 -38.3772351142 16.4668600057 -63.0891799532
C -1.8174951891 0.6647813045 0.8271583318 36.8786348696 7.7059962467 6.0125300870
H 4.6091607544 -0.0426815018 0.8326471482 -0.7164815404 0.1562693512 -0.0380725882
H 3.3359261412 0.4487862458 1.9813559821 0.0812939346 0.5985707474 -0.5244938836
H 3.1973994925 0.9195596284 0.1995545139 0.3983737700 -0.2748791102 0.6301690565
H 3.3031270180 -1.7594109589 -0.0048189464 -0.3834032113 -0.0996977197 0.5094133861
H 2.5758978721 -1.7103188176 1.6381979809 -0.0356700721 0.0231625045 0.0460426849
H 1.6792711279 -0.3150123472 -0.9510909425 -0.0785723606 -0.3984061628 0.4250987636
H 0.8606804543 -1.7260637854 -0.2771099583 0.5511010742 -0.1482198527 0.4387783502
H 1.0498804438 1.0964819429 0.8124531077 -0.4365953438 -0.6406697349 0.6404091412
H 0.2901399766 -0.2467117428 1.7873687528 -0.1146835891 0.0991851363 -0.6686931773
H -0.0650468245 1.0920529561 -1.9240728816 -0.1520209362 -0.6418837506 -0.1699399284
H 0.3213417878 2.0959720703 -0.5181399385 -0.6674088898 -0.5732132439 -0.6046582615
H -1.3704776326 2.0029550683 -1.0607900234 0.2932813923 -0.4068390258 -0.5495490670
H -0.5730890190 -1.1200513139 -1.6000670138 0.3023870626 -0.2860808256 0.7179537639
H -1.1570526626 -1.6957705749 0.0683317624 0.6011351075 -0.4031767101 0.1571060015
H -2.5618404983 -0.1897109413 -2.1328407656 0.0091393967 -0.8074426083 0.5566173836
H -3.1575442505 -1.5311876607 -1.0750173686 0.1818716888 0.3657225872 0.1195548783
H -3.2843251636 1.3621988096 -0.6219215116 1.2638579424 1.2848905733 1.4301127604
H -3.8871530659 0.0469007681 0.4605496308 -12.0749023818 -0.8072826323 -7.6176204519
H -1.8315969780 1.7156365521 1.1334075915 -3.2729442147 -4.6972113701 -9.1686895549
H -1.8590839407 -0.0631179731 1.6719703638 10.8489982799 -0.1235102523 9.4783819892
O -2.6533459520 -0.0516916829 0.7229377825 5.7404895908 -59.7230411968 27.3809172583
S -3.0579515731 0.9721789775 1.7714418172 -28.2091213832 12.5838419595 26.0768148633
O -3.4279281356 0.3239326738 3.0558057360 -3.2967615535 -4.2469172514 6.5374799356
N -4.2687544208 2.0178764171 1.1549466216 0.5711787849 4.4264593138 0.8537400198
S -5.7367761644 1.2274128731 0.8039428244 1.0460036826 2.7275086672 -2.7056365002
O -6.0969343445 1.4559437514 -0.6557074797 -1.3725756547 1.5684046503 -5.6709086343
O -5.7035622107 -0.2329832725 1.0675045764 1.3364880317 -9.1764358914 2.5800891526
C -7.0170497080 2.0572969354 1.7454236076 -2.8178918682 2.1932209164 2.6602196912
F -6.6674690322 1.9343890329 3.0685920744 -0.4061526982 -0.1050287621 1.9577376300
F -6.9484527945 3.3908887819 1.4091651863 -0.5720235168 1.5009241215 -0.3126078749
F -8.2548750459 1.5218561016 1.4608001022 -1.2791428703 -0.1144305529 0.1898234592
C -1.5933534576 1.9465391103 2.0504341453 12.6792080005 13.1330445835 18.9640216561
F -0.5512036991 1.2001128320 2.5488747046 1.8831690033 0.9508474322 4.1355034268
F -1.8855025753 3.0530626443 2.8003169289 0.6153343798 1.3419789212 1.5499418989
F -1.1421127390 2.4276650264 0.8153192693 11.3732450234 18.3676901473 -6.5388603244
45
energy=-60067.6000577605 config_type=IL_pair name=Pyr14-NTf2 Properties=species:S:1:pos:R:3:forces:R:3
C 3.6024265933 -0.8113541091 0.2061341668 0.4494684467 -0.5749480670 0.8112772288
C 2.3352873089 -0.2528220153 -0.4106172286 0.4797468859 -0.6136096336 -2.0304273075
C 1.6511900684 0.6601899757 0.5751354695 0.1071587857 0.3500515813 1.3852860377
C 0.3939262755 1.2642931976 0.0565655062 7.2519763652 -6.5098956006 -11.1960035020
N -0.6472260474 0.3704987103 -0.3161973610 0.9847108102 0.6269542225 -0.6813605402
C -0.5255307618 -0.1979769364 -1.6416403562 -1.3663954923 -2.3102097610 -5.1424105482
C -0.9211024603 -0.6925413165 0.6087242508 -1.5479321816 -2.7516732187 3.5023694166
C -2.3109599790 -1.1425752037 0.1599317168 -1.2080977804 -2.6739034781 -0.0831260119
C -2.9810958813 0.1107506228 -0.3636188802 -3.0370381467 0.0972782151 -0.1510051760
C -1.9072142867 1.1363033138 -0.2223368078 -2.3777169341 3.0953867970 -0.8165661665
H 3.3429084478 -1.7945345844 0.6621312570 0.7838652779 0.3869979236 -0.1968636959
H 3.9318267314 -0.1170246522 1.0051182741 0.3190173796 -0.4233002403 -0.2939204678
H 4.3588307517 -0.8804543206 -0.5814277043 0.5083065314 -0.5136693797 0.2723501317
H 1.7110817827 -1.0996333979 -0.7516207600 -0.0935830649 0.2202083957 0.2439180319
H 2.5938404949 0.3059161582 -1.3406339059 -0.1888817257 -0.0227575498 0.4519188798
H 1.5261380820 0.1400647947 1.5489223327 -0.1406389665 0.0180555795 -0.2283700752
H 2.3509582816 1.5007282577 0.7949274731 -0.3064526002 -0.2524258065 -0.0929296950
H -0.0237261929 2.0477691993 0.7276737060 5.7827335561 -15.4772491126 -29.5670465816
H 0.6682719287 1.8291573541 -0.8847630223 -0.3861229287 -0.6614951376 0.6896406671
H -1.4393640068 0.0587864824 -2.2229728842 0.4904351872 -0.1141710292 0.0304482892
H 0.3199678350 0.1598745719 -2.2284106367 0.5388327498 0.2959309005 0.2930109680
H -0.5152895744 -1.2982976258 -1.5912688801 0.4351353962 0.0948764357 -0.1682566527
H -0.2036434570 -1.5138849064 0.6103492642 0.6420778493 0.0184715687 0.0384857831
H -1.0723989558 -0.2405457712 1.6088650119 0.7946996683 -0.1304524163 0.0282246601
H -2.2599158463 -1.8678969921 -0.6905661194 -0.0283902907 -0.0600545095 1.0276998270
H -2.8878048070 -1.5508349296 1.0144488421 0.3432241075 -0.3325796628 -0.4054347810
H -3.3613968848 -0.0294512523 -1.3942622390 0.1006762611 0.1847164497 0.2628619758
H -3.8387135724 0.3909669736 0.2841698473 0.1597700479 -0.0405175124 -0.4218970351
H -1.9331538071 1.9315204672 -0.9939920628 0.2108634781 -0.0796267312 0.2381144433
H -1.9581180609 1.5830079343 0.7825284959 0.4734692103 0.3507633297 0.1197849609
O -2.7251136996 5.1540545649 4.0489999432 -0.8591441342 5.5764403082 5.3679106467
S -2.6760301963 4.2812154271 2.8342732776 4.2498390380 0.3169406705 1.7039547389
O -2.5182954304 2.8791438540 3.3085673873 -0.2927643261 -8.6171999158 1.3009959567
N -1.3456685147 4.6895090018 1.8396578870 1.3078353644 4.7328379966 -5.4053918868
S -0.0382226624 3.6462665367 2.2118952686 -6.2605730768 3.3707965102 4.0911823816
O -0.1426457185 2.4277651049 1.3420857408 -9.3618565329 19.7847652950 35.5874330151
O -0.1374025066 3.1615678876 3.6491162456 0.9803512739 -1.6878010630 5.6350788872
C 1.5463817380 4.4201564581 2.0749136184 5.2935314254 3.3548170948 -1.1401112993
F 1.6676658786 5.5001386150 2.9257809320 -0.1596290812 0.7790388502 0.9040395863
F 1.8025600601 4.8897555012 0.8046866306 0.5378453613 0.2313928154 -1.4377732810
F 2.4841597357 3.4792761795 2.4527212800 0.9745988393 -0.9194002203 0.1105521736
C -4.2228877596 4.4036023758 1.9765317502 -5.1016483505 1.2899963702 -3.0187278242
F -4.2530516966 3.5619605792 0.8951169396 -0.2729575746 -0.9789071112 -1.6483296854
F -4.5076933241 5.7031358460 1.5988029874 -0.3582004360 1.0675806258 -0.6939613010
F -5.2123604947 4.0158601956 2.8652539526 -0.8651679409 -0.4849655579 0.7334754144
45
energy=-60072.3869420823 config_type=IL_pair name=Pyr14-NTf2 Properties=species:S:1:pos:R:3:forces:R:3
C 3.9105801155 0.8014990491 0.3399911874 3.1495464914 0.7836279822 -0.7333974823
C 2.8236612134 -0.1951218213 0.5566581493 -0.8019165503 -2.1904784855 -1.0206739979
C 1.4547490655 0.3464059300 0.1194925368 1.0056681082 2.9947017218 2.0305041728
C 0.4753666234 -0.7275181854 0.3843135405 5.2732758444 -3.1035163543 2.2599380194
N -0.8779320562 -0.5037291832 0.0751727665 -1.7585910040 -2.4478937685 -0.6870085280
C -1.5013882271 -1.8411965645 0.0658631662 -0.5662486116 -3.6463441993 -0.9592173025
C -1.6058751940 0.2239983575 1.0965595082 -7.2339508466 1.5595353637 -0.6212324210
C -2.8254980939 0.7303040345 0.3208875573 -1.9427458051 -0.3985374090 -1.6627699829
C -2.1062854685 1.2682548269 -0.9144403938 -0.7195156518 0.4041316932 0.0513684562
C -1.1713720124 0.0836161451 -1.1935189608 -1.6076853031 2.7739337313 -5.9975513612
H 3.6283055814 1.6105994199 -0.3611690926 -0.0151422326 0.0189366271 0.5185745496
H 4.3290259416 1.1936696269 1.2911316864 -0.5810929680 0.2776308359 -0.3577150585
H 4.7708202308 0.2817886439 -0.1479370076 -0.3134049348 0.3573208002 0.2188119898
H 2.7723018706 -0.5113136489 1.6056867142 -0.2488911402 0.5057645932 0.7379321086
H 2.9998046804 -1.1090556923 -0.0411279388 0.2396806441 0.0518958925 -0.0250117077
H 1.4869161547 0.7790696937 -0.8728058428 -0.0559055247 -0.1685846599 -0.9033862830
H 1.2737086188 1.1978799673 0.8342639461 -0.2412780599 -0.5168479207 -0.5779462656
H 0.8181870675 -1.6846208417 -0.0608047934 -0.1633927227 0.4241656889 -0.4598279209
H 0.5230625478 -0.9321122010 1.4950373637 -0.4207444131 0.6164704732 -0.5233511835
H -1.5739393971 -2.1544701531 1.1157624013 -0.3504621658 -0.5382479500 0.4438443780
H -0.7847412406 -2.4883914993 -0.4806790508 -0.6777613737 -0.1912291806 0.0401961801
H -2.4633283941 -1.8049519769 -0.4775158176 0.1052515475 -0.1743461329 0.5744469692
H -1.0888123138 1.1027719885 1.4891435726 -0.4815910083 2.7246126709 -2.3679994629
H -1.9636024627 -0.4746639804 1.8932111100 -2.5480188164 -0.3479287298 -2.8229259995
H -3.5024912024 -0.1110334077 0.0465617343 -0.0620679563 0.6001171881 0.0731784531
H -3.3916904203 1.4910767723 0.8525355835 -0.1512634201 0.2772548447 0.4124790146
H -1.5235325959 2.1430301453 -0.6016750545 -0.0762179314 0.4352937946 -0.4494999429
H -2.7909378775 1.4417216047 -1.7551965267 0.2929427009 0.4497746880 -0.2296112597
H -1.7717681671 -0.5678324612 -1.8652760612 0.6532069262 -0.4197240431 0.5179014871
H -0.3232945879 0.4103254114 -1.7864190055 1.0034660139 -0.1046058027 0.1095797284
O 2.0380856978 0.6544928507 5.5853479764 0.1897914499 3.4040480988 6.3004124936
S 2.0189176423 -0.2595557790 4.3908565948 -3.8827090155 2.8609248105 0.4804483758
O 2.2409084901 0.6106228842 3.1845069572 1.3710815483 3.2390971715 -6.8819917825
N 0.6161162840 -1.2188784445 4.2814180869 -1.0917702380 -7.2587835859 0.4912364646
S -0.7833405976 -0.3125344785 3.8435273773 6.3208160414 1.2509138065 6.3208903543
O -0.6908211571 0.2922184764 2.4759935371 8.4055122104 3.0820060739 1.1950013186
O -1.1081740881 0.7537569681 4.8638994488 -2.1049117061 4.3386386954 4.3979419654
C -2.1045227981 -1.5094260343 3.8051492534 -2.2083789614 -4.4100704109 1.6748510361
F -1.7577762400 -2.4537456880 2.8606063746 -0.4142212681 -1.7619860637 -1.8793576259
F -2.0172309096 -2.1663556197 5.0433259885 -0.8401407562 -0.0830721920 0.1868031021
F -3.3343765985 -0.9466330440 3.5943108870 -1.3588800716 0.0581841078 -0.1987979886
C 3.4103098573 -1.3768142986 4.5421587376 3.0292258738 -4.2940485764 0.0628673488
F 3.4140792497 -2.1677150969 3.4065582287 0.6795951266 -0.8371989186 -1.3250024679
F 4.5945169049 -0.6694503081 4.6438748495 0.6944294638 0.1705752775 0.2213569307
F 3.1954032010 -2.2169748431 5.6113386314 0.5085565710 -0.7712442321 1.3786895431
45
energy=-60023.0427855539 config_type=IL_pair name=Pyr14-NTf2 Properties=species:S:1:pos:R:3:forces:R:3
C 3.9470423746 0.5913854109 0.0864684915 0.9251829706 -1.0140745963 0.7179897235
C 2.6463892934 0.5429014793 0.8829428625 -0.1608801976 0.0092997048 0.4237599422
C 1.4609766462 0.3765917972 -0.0777992742 1.7081645432 1.4556698300 -1.7351120152
C 0.1565291370 0.3229582111 0.6573151547 3.0276170737 0.9861454402 3.7743301540
N -1.0030485383 0.1683315771 -0.1715903810 -0.9061962570 0.0650562571 2.9508784743
C -1.1197975153 1.3338856782 -1.0250530887 -23.3830042825 -26.8407031737 20.6156628783
C -1.0677613192 -1.0651246897 -0.9033767040 -0.6578196796 -4.4595440244 -1.2596804427
C -1.6179318218 -2.0205418254 0.1617148514 0.0773813615 -0.5746832986 -0.0590290524
C -2.8031915170 -1.1745840791 0.6223507320 -0.5684845907 -1.4415289573 0.0042168707
C -2.1584451313 0.1832484252 0.7245144513 -4.1528370582 0.5563169658 6.2051884788
H 4.0671880508 -0.3115301250 -0.5374021810 -0.0142820580 0.2318230779 -0.0878167933
H 4.7636507731 0.5798244829 0.8424949999 0.0352978783 0.4464225143 -0.7533921808
H 3.9315186196 1.4905877194 -0.5324309199 0.5221658564 0.2113601212 -0.2038778884
H 2.6424454096 -0.2701983717 1.6193250582 0.1664192670 -0.1270177225 0.2298506905
H 2.5870671927 1.5113194231 1.4115345129 -0.4243025235 -0.2062574467 0.2131683647
H 1.5414118210 1.2770946834 -0.7487027945 -0.4319165293 -0.7253039073 0.3822903120
H 1.6022765752 -0.4848847428 -0.7321951443 0.1875821455 -0.5309366734 -0.0266061004
H 0.2500835500 -0.4519805264 1.4388196050 -0.4263894261 -0.0731678022 -0.0743720274
H 0.0233647294 1.3094576517 1.1740204707 -0.0581334813 -0.4710553220 -0.0943390796
H -0.2625343760 1.4072489202 -1.6921979502 12.3302275954 -70.3389476933 -43.5731780563
H -2.0978745002 1.3003135214 -1.5471569717 17.5500436390 -10.8302710224 22.4976855512
H -1.1438003683 2.2230353213 -0.3350183234 -4.5364873236 0.1139562333 7.0804230633
H -0.1149759657 -1.4601576402 -1.2421890118 0.6027055077 0.4896520142 -0.8059642077
H -1.8674907735 -0.9805236679 -1.6543945810 0.4147137929 0.6061980922 -0.9216974646
H -1.9249440257 -2.9628208149 -0.2943495962 0.2306850891 -0.5703466282 0.1604566760
H -0.8473082858 -2.1077649962 0.9426692747 -0.2470763045 -0.7668078111 0.1198230270
H -3.2457245049 -1.5338783959 1.5523384978 -0.3678408813 0.0095824073 0.2844693977
H -3.5245058551 -1.1843376124 -0.2207724814 -0.2199623544 0.1980580606 0.5988571819
H -2.9328819090 0.9208976726 0.4000901683 0.9802328110 0.0905417358 -0.4173668316
H -1.8877277656 0.4692455125 1.7622559039 0.5296681342 -0.6021818254 -0.1598876801
O -3.1574694784 0.8727714402 -1.1114897692 -12.8564859279 -6.7147974411 6.7747665221
S -2.7135737724 1.6268287734 -2.3195353489 -27.8678179406 12.4283734155 -28.6287001771
O -2.2528878838 0.6165099972 -3.3531281475 3.2255528033 -4.5119696869 -4.3015811623
N -3.9051398752 2.6306275276 -3.0067706752 2.3572317372 4.9713547275 -1.2027338070
S -5.4909169166 2.0066207623 -2.9513227299 2.9896575196 -2.1715050769 -0.9884791326
O -5.5863735045 0.6223088685 -2.3821472727 -0.2077176385 -6.6691958317 3.6664170451
O -6.1112545448 2.0034067974 -4.3179580547 -2.9074742136 1.2848582929 -6.6810516106
C -6.4741368971 3.0733327480 -1.8895218866 -2.5706563989 3.8741991094 0.9067854409
F -6.4298546218 4.3356895888 -2.4823297151 0.0200474515 1.3413008146 0.2515888624
F -7.7900148186 2.6601485059 -1.9941660053 -1.1648938670 -0.4659484376 0.7680473285
F -5.9901924777 3.1021886111 -0.6205278217 0.1045273966 0.2561003660 2.1290125862
C -1.3126924389 2.6908740375 -1.9517373379 -11.1442100085 22.7200346079 -15.1760171046
F -1.7297890106 3.6754295998 -1.0584671084 -0.1857900486 2.5792202480 0.3552042013
F -1.0011431270 3.3394189307 -3.1250741585 0.8134515103 2.9019291005 -2.0520412870
F -0.2938559971 1.9650977610 -1.4152246866 46.6568805479 82.2953740318 28.0942317835
45
energy=-60033.5003752394 config_type=IL_pair name=Pyr14-NTf2 Properties=species:S:1:pos:R:3:forces:R:3
C 3.4936665805 0.3217685475 -0.3419649898 3.1854728262 9.2930874036 -9.1240494420
C 2.5872012419 1.3727229204 0.2297500052 0.7109604016 1.2640064352 1.2994642385
C 1.2297639227 0.7617392839 0.4594722841 1.0082817356 8.5786331917 -4.1074497390
C 0.6318862872 0.2482645888 -0.8118987849 4.5419622216 5.0179187223 -2.6499783237
N -0.6700895821 -0.3423428370 -0.6168611820 -0.0148746054 -0.5727046038 -0.5472896013
C -0.7664431257 -1.5098987068 -1.4682961851 -2.2981329458 -4.6218543054 -5.4815225911
C -1.7613020826 0.5258475702 -0.9828824577 -4.0758592938 4.6314031762 -1.4916772385
C -2.8589934219 0.3038743353 0.0555943730 -2.6421721153 3.4601274734 -0.2241529555
C -2.4168485923 -0.8877399648 0.8496728233 -18.3431590558 24.0270881942 -2.0032763383
C -0.8937442527 -0.7228330159 0.7703741001 0.9158070002 17.5449909237 -3.5512332277
H 3.7018722540 0.5682793938 -1.4130290514 0.3051419974 0.5591365194 0.0491316155
H 3.0900607361 -0.6984242356 -0.2662907012 -1.8425633561 1.5024290175 -4.1934400985
H 4.4732447475 0.2906511563 0.1857333097 -0.1008911574 1.1593377128 -1.3104943807
H 2.5398654695 2.3047085000 -0.3663242512 0.2524074051 0.0528093777 -0.0193663652
H 2.9789152444 1.6160742629 1.2575415783 -0.3740616520 0.4012370115 -0.8049511931
H 1.3810111821 -0.0286253973 1.2229096660 3.7262836347 3.5258657052 -2.3267739868
H 0.5924232545 1.5959365930 0.8581879213 0.0582302488 -0.8969737349 -0.0982433256
H 1.3478157356 -0.4456885081 -1.2972155667 -0.5575897476 0.5710205762 -0.0774972277
H 0.4777729660 1.1502432289 -1.4664595968 -0.1105343237 -0.7014132019 -0.1834252239
H -1.8031610992 -1.6807291175 -1.8249729457 -0.1257697826 0.4757063838 0.2852812709
H -0.3573578733 -2.4289412157 -1.0010140689 -0.3030039724 0.4546814776 -0.2016268274
H -0.1613841920 -1.3766058997 -2.4013557630 -0.3591817358 0.1668247983 0.7640125189
H -2.2118254961 0.3180339183 -1.9608798799 0.7723838062 -0.2938181974 -0.5088131624
H -1.4521602805 1.5980815344 -1.0064644715 0.2036600788 -0.6284824029 0.1541131347
H -2.8113669780 1.1719250067 0.7455971088 -0.6771491316 -0.0400993437 -0.3488304150
H -3.8536424444 0.2040548270 -0.4183936824 0.1413140974 0.4190132590 0.1044866267
H -2.7201576999 -1.8665372151 0.4277683174 -11.7292865099 1.5287714337 -6.5819330818
H -2.7504119234 -0.7974905897 1.9015531821 -1.1569087909 1.1810982774 0.0283041567
H -0.3738644083 -1.6685683436 0.9594970826 -5.5096796549 10.0565667884 -5.1077802940
H -0.6627461694 0.1022193791 1.4533899186 -0.2337357043 0.1298801873 -0.4946222386
O 3.4661487148 -0.9969514053 0.7398103950 1.0523638834 -1.3697676249 10.5511657074
S 3.4915695656 -2.4968132029 0.8455917310 -3.5095438562 -3.6687255473 2.8105597851
O 3.3343469105 -3.0682130333 -0.5087186872 0.0815576971 -3.7128804053 -7.7999981354
N 2.1148389409 -2.9447779742 1.7820197585 -2.1566101270 -3.6082202290 4.8327767642
S 0.7971569181 -1.9933719237 1.2102062561 21.4576428892 -10.3036303205 6.0693085680
O 0.7867551692 -0.6164111558 1.7935318143 0.6076515423 -1.7673698240 15.3820442829
O 0.9469145251 -1.8671440805 -0.2841282978 4.3651505056 -2.4000935040 -5.4279275873
C -0.7757564867 -2.7671283465 1.5077255068 -2.1275737715 -14.5112095164 7.8808918125
F -1.7311780918 -1.8842063735 0.9939448510 8.6617705064 -42.3653245809 10.1288145811
F -0.8748369237 -3.9208325725 0.7600066605 -0.3459105211 -1.1358476403 -0.3467888881
F -1.0027174424 -3.0189558107 2.8407607867 -0.3502542267 -0.3704883273 0.7866617444
C 5.0028318771 -2.9662467116 1.6303146681 5.3472796297 -1.0991597264 3.4596782671
F 5.0579393378 -2.3198593886 2.8649391445 -0.1188235539 0.1248228883 1.0401146888
F 6.0648044258 -2.4486714344 0.9140473609 1.1197284775 0.2448625758 -1.0561266336
F 5.1479738546 -4.3049952607 1.7954712404 0.5635502289 -2.2959631621 0.4383128610
