39
energy=-47309.0207227382 config_type=IL_pair name=Pyr14-FSI Properties=species:S:1:pos:R:3:forces:R:3
C 3.0548441106 -1.4180993945 1.4939771371 -0.5373141493 -2.3442815515 -12.6969573784
C 1.7700955909 -1.4368488214 0.6487022520 2.0695944807 -4.2601215528 -6.1931187860
C 1.7904718730 -0.2046265154 -0.1718829294 3.2029291324 1.7990421712 0.4250174749
C 0.6626944997 0.0367924596 -1.0880851112 3.3447348774 0.7737932544 -5.9550289320
N -0.6423367429 0.1653796204 -0.5335942878 -0.4574666705 -0.7140996254 0.4151326301
C -1.1556931705 -1.1640700722 -0.2701318572 -3.0647729805 -6.0284941322 -1.4813520361
C -0.6740464152 0.9025895670 0.7086171670 1.6486244349 6.3632275788 1.3552670303
C -2.1528748090 1.3178294849 0.7614298814 -0.2336512937 1.1811338405 0.1412076869
C -2.2537383351 1.9236158337 -0.6368445473 0.1174521288 2.0342107689 0.5781815290
C -1.5511390336 0.8637255395 -1.4358703399 -3.5857017617 0.6146602008 -4.9474499143
H 3.0061966805 -2.0870621470 2.3562155937 -1.5817758860 -5.0378405030 -3.9273125542
H 3.2894664638 -0.3819894942 1.8147746372 -0.3359961798 1.1407689150 -5.1552876622
H 3.8808364553 -1.7460480244 0.8286888006 0.0072728741 0.1860256683 -0.0192143224
H 1.8214756521 -2.3190842674 -0.0569048635 0.2603894444 0.6131118379 0.1638626578
H 0.9090818879 -1.6284806457 1.2749313949 0.2401342500 0.1628162988 -1.1701023783
H 2.0251194363 0.6694935081 0.4990886938 -0.6251758846 -0.3427496817 -0.5000387971
H 2.7172098485 -0.2704211532 -0.8188604004 -0.9287056632 0.2617143921 0.2171651041
H 0.8159192415 0.9506660481 -1.7285286192 0.2488014196 -0.3605674289 0.7239102606
H 0.6033510070 -0.7952918141 -1.8431534438 0.0756613607 0.4997084369 0.5004788514
H -2.1310110933 -1.2715460111 -0.8333258126 1.1277622743 -0.2093720225 0.6399730087
H -0.4619349273 -1.9396560556 -0.6579643407 -0.2773291818 0.4179274020 0.3102223033
H -1.4071268764 -1.3013353922 0.8151561036 0.2950075508 0.8749017690 0.4777727723
H -0.1253072286 1.8742982901 0.6051202325 0.2308445243 -0.6145174632 -0.5185138298
H -0.3923435536 0.3285449344 1.5876003498 0.3401408555 0.2244019011 -0.9891599357
H -2.2775121390 2.1268467392 1.4796049781 -0.4525123766 -0.1585204409 0.7805751914
H -2.8228147895 0.4581182722 0.9023794860 -0.1285909176 0.4510002771 0.1851383762
H -3.2881464345 2.1217888163 -0.9427864918 0.0559380793 0.1756729106 -0.3789565428
H -1.6131153066 2.8455963354 -0.6127325830 -0.9853411357 -0.2921663766 -0.3880909679
H -1.0543600091 1.2316584178 -2.3511517021 0.3370212971 0.0410859118 0.2546210026
H -2.3432618827 0.1476159416 -1.7944693776 0.8860964824 0.4573473468 0.1231665906
O 1.8469437587 -0.7523624361 4.9559399203 -2.1250563876 -0.5270396514 7.4972284672
S 2.0896047669 -0.5208355991 3.5031940119 -0.4849168499 1.9668793579 3.2961592596
O 3.3914033853 -1.1691100497 3.0856590653 9.5452330000 2.1394228123 17.5686441660
N 0.8571995576 -1.2540611586 2.5720868771 -1.8154707955 0.3177972290 1.5452873855
S -0.7194883207 -1.0021289570 3.1859755331 1.8330180069 -3.1332285210 3.9629736878
O -1.2560563861 -2.3438055406 3.6315397150 -2.0570764215 -4.7387142183 2.1959849963
O -1.5688558291 -0.4441135759 2.0672189767 -5.5053218130 -0.2246912251 -0.6818043973
F -0.7850076120 0.0613094882 4.4556870305 -0.3307576991 2.9764019033 2.9364732014
F 2.1481685449 1.1167919021 3.1243769780 -0.3563629191 3.3092300099 -1.2909434393
39
energy=-47320.9726468140 config_type=IL_pair name=Pyr14-FSI Properties=species:S:1:pos:R:3:forces:R:3
C 3.0548441106 -1.4180993945 1.4939771371 1.1641739089 0.0352067150 -0.3104467604
C 1.7700955909 -1.4368488214 0.6487022520 0.7463044726 -3.3789607174 -0.0538770057
C 1.7904718730 -0.2046265154 -0.1718829294 3.1906157192 2.5270733783 0.5120766477
C 0.6626944997 0.0367924596 -1.0880851112 3.2953878297 0.5562195108 -5.9523477536
N -0.6423367429 0.1653796204 -0.5335942878 -0.2802144240 -1.0254867948 0.5684378132
C -1.1556931705 -1.1640700722 -0.2701318572 -3.4477111928 -5.0197910495 0.5843949432
C -0.6740464152 0.9025895670 0.7086171670 -0.8814883519 3.3567497120 3.7327879136
C -2.1528748090 1.3178294849 0.7614298814 -0.1226420168 0.7206999185 0.4521529006
C -2.2537383351 1.9236158337 -0.6368445473 -0.1486649524 1.5967790560 0.4798436106
C -1.5511390336 0.8637255395 -1.4358703399 -3.8470087765 0.7086868916 -5.0139673595
H 3.0061966805 -2.0870621470 2.3562155937 -0.0121667379 -0.1290730164 0.2414639076
H 3.2894664638 -0.3819894942 1.8147746372 -0.1392745091 -0.4611054614 0.2087268758
H 3.8808364553 -1.7460480244 0.8286888006 -0.0494727568 0.1058846594 0.4854517539
H 1.8214756521 -2.3190842674 -0.0569048635 -0.1005229676 0.5685274757 0.7248087564
H 0.9090818879 -1.6284806457 1.2749313949 -0.7465205025 0.4797072934 0.4826093005
H 2.0251194363 0.6694935081 0.4990886938 -0.6890342781 -0.3977936236 -0.6365271167
H 2.7172098485 -0.2704211532 -0.8188604004 -0.9458055311 0.1000078211 0.3728864207
H 0.8159192415 0.9506660481 -1.7285286192 0.3534566283 -0.4074026683 0.8351817042
H 0.6033510070 -0.7952918141 -1.8431534438 0.0638843521 0.4980004277 0.4517846501
H -2.1310110933 -1.2715460111 -0.8333258126 1.0258421184 -0.2926320430 0.7075589263
H -0.4619349273 -1.9396560556 -0.6579643407 -0.2951445307 0.2115202544 0.5075625631
H -1.4071268764 -1.3013353922 0.8151561036 0.5440641186 -0.1198240236 -0.8209463436
H -0.1253072286 1.8742982901 0.6051202325 0.2305646059 0.3187465041 0.2677814041
H -0.3923435536 0.3285449344 1.5876003498 0.7456793362 -0.4396905511 0.1253333152
H -2.2775121390 2.1268467392 1.4796049781 -0.3045726189 -0.0659744684 0.7590761831
H -2.8228147895 0.4581182722 0.9023794860 -0.2094116338 0.1681733067 0.3855646715
H -3.2881464345 2.1217888163 -0.9427864918 0.0365171833 0.0398607405 -0.3531952650
H -1.6131153066 2.8455963354 -0.6127325830 -0.4060743251 0.1888299051 0.2583167086
H -1.0543600091 1.2316584178 -2.3511517021 0.3718594117 0.0460714373 0.2680098752
H -2.3432618827 0.1476159416 -1.7944693776 0.9205918186 0.3708329130 0.0756315257
O 0.8734515677 3.3478477302 2.3180240286 0.9308086785 -5.1641491260 5.5740596601
S 0.5947215120 4.4142546359 1.3153710742 3.0151093757 3.1007668264 -0.4372145090
O -0.4361339111 3.9189017619 0.3458218500 -5.2458643025 -2.2390732382 -5.2941651534
N 2.0241227815 4.9602629418 0.5133174000 -0.8854008016 0.4888826452 -3.7719863796
S 3.3733072441 4.9517453839 1.5865025782 -1.1260357936 -0.0409835907 -1.2159399474
O 3.4519364636 6.2124441132 2.3860010383 -0.0503663279 5.4472481941 4.4377665785
O 4.6069463674 4.7462347287 0.7379551259 4.6470882663 -1.6748007020 -3.4144095222
F 3.2135466563 3.6640741344 2.6289356796 -0.0354396422 -3.0760720112 2.4352204361
F -0.0428590485 5.7681785478 2.0920198445 -1.3180035073 2.3046994222 1.3284243997
39
energy=-47319.4324671874 config_type=IL_pair name=Pyr14-FSI Properties=species:S:1:pos:R:3:forces:R:3
C 4.0855277099 0.6316971850 -0.1039452080 1.8809583155 -0.7688736729 -0.2577646737
C 2.8774094330 -0.2584428199 -0.1668129725 3.1700017093 0.1668266392 4.1281937760
C 1.5939459827 0.4932913720 0.1407625981 1.0148747401 1.2825870463 0.2076718900
C 0.5052038639 -0.5242544608 0.0365789944 3.9995177420 -2.4198856346 0.9030172467
N -0.8241145818 -0.0689894830 0.2837655117 -0.8722505900 -1.1698518336 -0.0799857831
C -0.9379227970 0.6517769017 1.5167364820 0.3464436666 3.1274989151 4.0473706008
C -1.4204216167 0.6513147605 -0.8044049046 -2.1025972320 4.5660124513 -3.2074834739
C -2.9046014859 0.4704106974 -0.5455148856 -2.0751905224 1.4246094881 -1.2464853548
C -2.9906088074 -0.9721811247 -0.1826095073 -3.0989369038 -2.2391635556 -0.5236940053
C -1.6277757217 -1.2988487555 0.3250529589 -1.2742543105 -3.8660088173 2.0403961936
H 4.9424491793 -0.0051132244 -0.4452395124 -0.2469039012 0.6798151924 0.2692154272
H 4.0289527181 1.4860226210 -0.7977566852 -0.0374198218 0.2384203936 0.4462337700
H 4.2862148588 0.8914241907 0.9368379409 0.3615718193 0.9682996403 0.1944201426
H 2.7802466487 -0.7374145998 -1.1687592961 2.6252882128 2.7019044499 3.8336154566
H 3.0296630565 -1.0903163198 0.5510186808 -0.2424166769 0.4006977098 0.1755519983
H 1.6813250630 0.9540362103 1.1420451435 -0.3691294877 0.1583072288 -0.1663758091
H 1.4712533474 1.2672427962 -0.6336058756 -0.1931223230 0.3043650057 0.2078803107
H 0.6967853761 -1.3248990375 0.8025542099 -0.0930814994 0.4649373667 -0.5949034260
H 0.5639573533 -0.9722650280 -0.9776918795 -0.5071705272 0.0851770233 -0.2428380376
H -0.5019908057 1.6656450928 1.3673593427 -0.3359598898 -0.3050415040 0.1502028088
H -0.3259329608 0.1588912330 2.2897949416 -0.1705637781 -0.1963029000 0.0166648314
H -1.9817783053 0.7401131949 1.8688779460 0.1807944812 -0.1082131275 -0.2091644468
H -1.2483869096 1.7476259137 -0.7488994178 0.9138838133 -0.4178252218 -0.1645137840
H -1.1589114564 0.2316237907 -1.7872709681 0.5291305392 -0.5787222673 -0.0012477631
H -3.2579130910 1.1307586664 0.2543321921 -0.0711788093 0.2010469353 0.0670545409
H -3.5225071589 0.6514672488 -1.4443126830 0.2963879474 0.4253915953 0.1389651463
H -3.7981450431 -1.2124656889 0.5400247707 0.2665959124 0.2334500457 -0.1008849182
H -3.2388785580 -1.5608931118 -1.1140424645 0.4839778437 0.3362307174 0.8735116654
H -1.1888790057 -2.0801600792 -0.3297058002 0.7140138474 -1.2166602793 -0.2231441923
H -1.6141662856 -1.7170981416 1.3512902832 0.0604967067 0.3283292802 -0.1315099329
O -0.6444254009 -3.5823101106 -0.8560968857 -1.8534316184 -2.4175803693 6.8958317263
S -0.3780890897 -3.1087296291 -2.2522885533 2.0269305883 -2.3904275420 -2.5501861070
O -0.6561497968 -1.6480318905 -2.3331264800 -1.5708497037 7.9043814353 -1.1393548429
N 1.1763018790 -3.5086041519 -2.8270093704 0.0005874490 -2.8622482399 -3.4956510268
S 2.4348429024 -2.5505293135 -2.1660415787 -0.3998844457 -4.9418559933 -2.3413927264
O 3.0424961526 -3.1959596595 -0.9513374180 1.5766652780 -2.0615906178 6.4569767586
O 3.5291091158 -2.5549336349 -3.2138679523 3.4961263287 1.0186937935 -4.6923272705
F 2.0127344522 -0.9675683214 -1.9131871476 -7.0329654191 2.2727479284 -7.9408014516
F -1.4662858012 -3.9088192877 -3.2615960075 -1.4007087843 -1.3267952621 -1.7511494299
39
energy=-47315.4330387103 config_type=IL_pair name=Pyr14-FSI Properties=species:S:1:pos:R:3:forces:R:3
C 3.7519355301 0.1985370435 0.0273868484 0.8238896061 0.7907111901 -1.6495425323
C 2.2926850971 -0.0551498474 -0.3698245412 0.3327902006 0.5043951572 -0.9056633335
C 1.6224597937 -0.9067610216 0.6869915189 2.7426643057 3.1088917343 -0.8901979761
C 0.2036072301 -1.2241956240 0.4099639734 -0.9218386715 0.6462740615 5.1933070556
N -0.7258310519 -0.1697001864 0.2757301070 -1.7540087842 0.0083822392 -0.1006093009
C -0.4710833371 1.0484675301 0.9514130068 0.5660781716 5.7786423612 3.7112277722
C -2.0861088926 -0.5922440610 0.6801727358 -2.3807861777 -0.1074560391 2.5425291055
C -2.9918484002 0.3900040748 -0.0442749595 -1.9436741419 -0.4723297562 -1.1847693507
C -2.1126126609 0.9811873698 -1.1499095860 -2.3672154994 1.4556168996 -2.6193309859
C -0.9801080659 0.0119153683 -1.1543932809 -0.8225572488 -0.7477740884 -3.6332043077
H 4.2075432984 -0.7223204847 0.4263040536 0.1453563246 -0.1919291747 0.2393716814
H 3.8502630706 1.0612447884 0.6843368835 0.0684564141 0.1097856216 0.5188334367
H 4.2999185500 0.4362194328 -0.9140486358 -0.0084079934 0.0917660524 0.5949878630
H 1.7837973660 0.9030873809 -0.4181885210 -0.2296174497 0.7093761206 -0.9669026472
H 2.3141931793 -0.6005413654 -1.3494755207 -0.5217459189 0.6288779631 0.4697923515
H 2.2218955285 -1.8727477024 0.6696406630 -0.5168566255 4.0354279396 0.8928710400
H 1.8319167953 -0.4215169435 1.6636677467 -0.2381131445 -0.3785840777 -0.0582072346
H 0.2087589585 -1.8895731586 -0.5054629903 -2.0375962816 3.7301624088 1.2411994705
H -0.1960542281 -1.9198783401 1.2026973905 0.3801099277 1.0571645879 -0.4230579362
H -0.2544493032 1.9113902705 0.2894456618 0.5757473225 -0.5698043127 0.1508048374
H 0.3090336274 0.8866038856 1.7135338976 0.2715327540 0.1827728370 -0.3776673169
H -1.3676550230 1.3613205715 1.5284493023 0.3889083620 0.0314781087 -0.2296564034
H -2.2859507126 -1.6396033659 0.4436608917 0.2571454773 -0.3792064561 -0.1868005592
H -2.2183091074 -0.3931712603 1.7489512081 0.3553046370 -0.8013532276 0.5092310825
H -3.7563599230 -0.2407740357 -0.5549080201 -0.3344349380 0.8597300469 0.6499317597
H -3.4011578886 1.1663545436 0.6144892501 -0.4478813658 -0.2126321946 -0.0044030891
H -2.6841741507 0.9778027605 -2.1187442208 0.6630987973 -0.0784303083 0.6223375823
H -1.8425466822 2.0213798252 -0.9856684219 0.3379917336 0.4126239832 0.2511356747
H -1.4191205243 -0.9774473344 -1.4783798176 0.9601326714 0.8087893599 -0.1776308764
H -0.1046380731 0.2701098858 -1.7388667273 0.8134833598 0.1765558713 -0.1655713901
O 3.6971117734 -3.7816961342 2.1318262832 -1.2169909688 0.0606325102 6.2318766633
S 4.2788298166 -3.6911544167 0.7477259000 -1.1886979657 -0.6768670150 -0.2011731009
O 5.3293497053 -4.7401365273 0.5244624388 5.1667034768 -3.8336849433 -1.8631368511
N 3.0467010866 -3.9555343072 -0.4472604304 -0.2646962811 -0.8234015584 -4.4262557937
S 1.5401736241 -3.5639815936 0.2874938491 2.7303388222 -6.2240172425 -0.5611045574
O 1.7269815442 -2.8540219385 1.5979106259 -0.9688189677 -1.4138996357 7.9131437393
O 0.7019703572 -2.7823952396 -0.6724814849 0.5763233036 -8.9899272345 -10.8007665744
F 0.7765098634 -5.0198227602 0.6504171855 -1.6641400369 -2.4088945609 0.3148091915
F 4.8866507682 -2.1491030612 0.5029959876 1.6683448500 3.1304580725 -0.6234319054
39
energy=-47316.1435649308 config_type=IL_pair name=Pyr14-FSI Properties=species:S:1:pos:R:3:forces:R:3
C 3.8464811073 0.3350487228 0.5333764527 2.6147067165 1.9522351058 0.5547812914
C 2.8566343080 -0.2777987487 -0.4260394540 -0.2794029401 -0.2834420039 -0.9548833795
C 1.4731555564 -0.0561486888 0.1861957538 2.0890960022 0.1727671817 0.4040750538
C 0.3959186536 -0.6302889845 -0.6900423208 3.2044800189 -0.2270638508 -1.9260786078
N -0.9101128241 -0.4023283636 -0.0785394892 0.5044698674 -1.6259036808 -0.7789460134
C -1.2735296684 -1.6138705256 0.6124604267 -3.4968215254 -7.0460275825 0.0175542507
C -0.9140336684 0.7666165347 0.7688785528 -0.0361545387 5.5150616667 -2.3634924108
C -2.4152109426 1.0787237437 0.8549120494 -0.4031178159 2.8602513507 -0.5393725354
C -2.7086086164 1.0685283835 -0.6409023914 -0.0999215943 2.3067005257 -0.4405287622
C -1.9298443121 -0.1521795166 -1.0759629360 -3.4740071467 0.1014216825 -5.0173890089
H 4.4028973801 1.1801146732 0.0407534488 -0.3806786086 -0.6961923477 0.3079198550
H 3.3717541406 0.8040775551 1.4186172563 0.1101708042 -0.5921692681 -0.0692969264
H 4.6211364807 -0.3898953358 0.8304033620 -0.1886531211 0.0773007342 0.3571544074
H 3.0853866185 -1.3472348949 -0.5735426255 -0.2120899129 0.0754815361 -0.2146658415
H 2.9150899255 0.2619797178 -1.3829621001 0.0307118731 -0.3620504653 -0.3396645738
H 1.4176290082 1.0328358959 0.3352387753 -0.4338394250 -0.2252794801 -0.0298587440
H 1.4923597468 -0.5879925291 1.1654806695 -0.6449711268 -0.1131244076 -0.3265525993
H 0.4278200671 -0.1534702955 -1.6796870350 -0.0847435027 0.0196791730 -0.2227391577
H 0.5897559518 -1.7091845401 -0.7888589099 -0.3207285001 -0.0597714302 -0.3338389110
H -1.8808094147 -2.2753531786 -0.0716264089 0.3999655922 0.8949904187 0.1607810377
H -0.3977273604 -2.2353603930 0.8874185336 -0.5368017036 0.9838620897 0.3243699906
H -1.9245572753 -1.4522137275 1.4899236239 0.0855112357 0.3093707365 0.0930919382
H -0.4384993839 0.6372343003 1.7324205197 1.1457750021 2.7980386875 -3.3529013832
H -0.5304404669 1.6069202120 0.1437283874 0.5133278022 -0.3427545387 -0.0303814372
H -2.5295268835 2.1286645390 1.2423198206 -0.2720643218 -1.1045855088 0.1458804177
H -2.9728463088 0.3335139379 1.4206959830 -0.7101102534 0.2031739821 -0.5294262500
H -2.2259266997 1.9983028608 -1.0479660701 -0.7747731188 -0.6979015790 -0.1443346833
H -3.7692916960 1.0486678931 -0.8736878875 -0.4608294182 -0.1509356702 -0.4078226080
H -1.4268855768 -0.0022900473 -2.0489202191 -0.2522166922 -0.0881233058 -0.0123214121
H -2.6481678464 -0.9956192002 -1.1782280296 0.6658143530 0.0896385067 0.0621237146
O 0.0531904913 -0.8096522055 4.4557828796 0.5343699476 -0.9195773425 5.8273920155
S 0.0671183111 -0.4101662695 2.9982813712 -0.1511508105 -1.2118493615 5.3668815554
O 0.4049306208 -1.6170754638 2.1623321906 4.4393658157 -4.4908574131 -2.7219810439
N -1.4587048781 0.2349972043 2.5839955065 -1.1499812995 0.5749981765 3.7797502840
S -2.7370534845 -0.2306452745 3.6000163655 -0.1531894569 0.4492008145 2.3376527898
O -3.5444414733 -1.3564869898 3.0116787061 -2.2444174880 -6.0196133668 -3.2820433455
O -3.7195071000 0.9066427708 3.7751657350 -2.9753761611 5.3912296186 1.1806836071
F -2.2652724986 -0.7138371584 5.1144817078 1.1517078363 -1.1319764347 3.7203380661
F 1.2357051679 0.7891780548 2.8369614421 2.2504250725 2.6168686829 -0.6013689152
39
energy=-47277.5205556919 config_type=IL_pair name=Pyr14-FSI Properties=species:S:1:pos:R:3:forces:R:3
C 3.8966000229 -0.0579003346 -0.3905711633 2.5040833965 -0.8017418312 1.6315688720
C 2.5183105990 0.3276022728 -0.7991588418 -1.5491238855 0.3641638536 -1.9050289199
C 1.4481795437 -0.3781905410 0.0434713005 2.1001794117 -1.4989426854 0.4261329519
C 0.0978230120 0.0475839315 -0.4122788252 4.0052649416 4.8341176084 -3.2098045682
N -1.0163206271 -0.4999238605 0.2488579284 -0.9756623958 1.0119639991 0.1054270891
C -1.1084544155 -1.9368981600 0.0722572762 -26.0006652904 36.3369525299 -4.2832523317
C -1.2520962260 -0.0773878652 1.5975528827 -0.8792490094 0.5203929946 4.6262476514
C -1.5529022125 1.3994731195 1.4903131836 -0.5104207305 1.4411454115 0.5569971155
C -2.2897841353 1.4644287419 0.1469955106 -0.9016545948 2.0922627991 -1.0698964269
C -2.2110252319 0.0543841129 -0.3944596561 -3.1432429699 1.1442574486 -1.7314960898
H 4.5490932199 0.8212643474 -0.4271575454 0.2922762434 0.0922584770 0.0047618029
H 3.8851557158 -0.4128955520 0.6798239329 0.3434437084 0.1122558037 -1.0392639496
H 4.3564100750 -0.8237153002 -1.0519655201 -0.3436952057 0.0918509841 0.4881357987
H 2.3974102173 1.4195870947 -0.7323442280 -0.1915119709 0.0711592018 -0.1377819742
H 2.3668579085 -0.0011868615 -1.8510623939 -0.0901051234 0.6064846877 0.1821968615
H 1.6171241517 -1.4659655568 -0.1134369281 -0.3878899688 0.1474413710 0.1841897865
H 1.6905487842 -0.1596002441 1.0781384323 -0.3910257828 0.1315828061 0.8663909774
H 0.0013961208 -0.2476372561 -1.4894872145 -0.0354105486 0.1679519741 0.8544551096
H 0.0436873945 1.1555437587 -0.3989084203 0.0997048381 -0.2592349348 0.2394350042
H -1.8917736780 -2.3386729964 0.7371100472 -11.3926994018 3.6994993474 4.3173274628
H -0.1488693112 -2.4540533255 0.1489019689 30.5773369488 7.9163988450 -2.2082558917
H -1.4752152826 -2.0891650024 -0.9831874167 -13.2798459495 6.8287020913 -3.1419520375
H -2.2036864384 -0.5556694879 1.9188953174 0.4580170082 -0.5023220020 -0.1128500004
H -0.4921849930 -0.3373622113 2.3293486957 0.8436114882 -0.3143562632 0.0571187036
H -2.2364294058 1.7072019240 2.3029685185 0.6093564420 0.2236330048 0.0852055165
H -0.6551539610 2.0259213093 1.4118901802 0.0898891505 0.0918846783 0.6884844216
H -3.3602864510 1.7367626307 0.2823208658 0.5761650984 0.3270889944 -0.3516512185
H -1.7515231473 2.1427800795 -0.5612615863 -0.8754563302 0.0335488575 0.5261031589
H -3.0790221006 -0.4971415629 0.0061180356 0.0664089247 -0.6132704339 -0.4266806749
H -2.1438691482 0.0308327955 -1.4985345185 -0.0606651693 -0.3880550922 0.2725249327
O -0.7620987508 -2.7539831693 0.7527403139 2.2907262603 -31.6926755447 55.9553860413
S -0.7055399959 -3.0888599739 -0.6970453307 11.9776577938 -33.3294619109 -27.5554371263
O 0.6374564278 -3.7177920347 -0.9924927846 5.1803724635 -5.2491706246 -3.5218839995
N -1.9089377113 -4.1778209810 -1.2004476498 1.6782127323 -2.6077020455 -1.8305967305
S -3.4448734649 -3.9406945484 -0.5087137560 -0.6152522975 -1.7348811216 -1.5760845334
O -3.9087787948 -5.2861006158 0.0060988020 -1.2853489599 -5.1289646445 3.0353523562
O -4.3901061979 -3.4626413913 -1.5864993281 -3.5678967226 3.1798668188 -4.1278160064
F -3.4618570304 -2.8611723298 0.7583587779 -0.6061534177 2.8813959710 3.7611275948
F -0.7962314666 -1.6609232361 -1.5882883304 3.3879761609 9.7782183259 -20.6396061366
39
energy=-47317.8532456150 config_type=IL_pair name=Pyr14-FSI Properties=species:S:1:pos:R:3:forces:R:3
C 3.5643263827 -0.3619965070 0.5885516363 1.0623768793 -0.6805908788 1.0827758412
C 2.2837798502 -0.5387637463 -0.2421627320 1.6849232148 -0.7276878403 -0.2997596900
C 1.4903079564 0.7191798064 -0.0392478096 1.3814899388 0.9009276898 2.0771311736
C 0.1945371893 0.7972068382 -0.7472265748 1.2198791760 3.7441961371 -0.7462001165
N -0.7997941831 -0.1704728510 -0.4708691512 -1.3975006016 -1.3050058104 0.5951275376
C -0.6776610520 -1.3953969013 -1.2089508222 0.4675767787 -5.5630756698 -2.6612231089
C -2.0787960463 0.4306653261 -0.8079084408 -5.1950187664 2.4377926361 -1.7506403901
C -2.7134629595 0.9226619391 0.4432511458 -3.0332604574 1.0482973498 1.2006002641
C -1.7480208351 0.6001193147 1.5345203458 0.6326530135 -0.3256867168 2.7668984837
C -0.9479089190 -0.5237579038 0.9121538505 -1.7436018835 -2.6381897621 4.8293049285
H 4.3992330317 -0.8490700821 0.0604782712 0.2514685663 0.3655526297 0.2041179409
H 3.4708323797 -0.8667027390 1.5769965222 -0.0082711175 0.2566917819 -0.3964569715
H 3.7622691705 0.7037317179 0.7954819277 0.3627610493 -0.2390067358 -0.3201375652
H 2.5971996412 -0.6295715697 -1.3058816840 -0.6102161900 -0.1940059690 0.2990891903
H 1.8364389598 -1.4560428444 0.1370393904 -0.7155669857 -0.4253894349 -0.4014615720
H 2.1294548049 1.5271432705 -0.4578966785 -0.7732185695 -0.2158687051 -0.0524768004
H 1.4380339373 0.9543097552 1.0453143517 -0.4195194826 -0.2403642110 -0.1726996685
H -0.2313717170 1.8097417049 -0.5889748793 0.0053168256 -0.5316990014 0.2590067436
H 0.4053351311 0.7503708414 -1.8444597637 0.9986779074 -1.0523989958 1.6416361213
H -0.0674427347 -1.3064841588 -2.1286043658 0.1267686871 0.1564656933 0.3837831795
H -1.6906202850 -1.7192096818 -1.5225124255 0.3614789254 0.0363801158 -0.0087821689
H -0.3216865550 -2.2290829590 -0.5489805000 0.4223603757 0.7325304796 -0.6568516311
H -2.7394010310 -0.2637500055 -1.3620517775 0.3662564046 0.0315055208 0.3607915701
H -1.9628821841 1.3244261275 -1.4883260035 0.5586859141 -1.2077569725 -0.1859254779
H -3.6515666013 0.3608454936 0.6106369231 0.0071081931 0.3047348004 0.1082551548
H -2.9677740547 2.0006543545 0.4264732940 0.0389532289 -0.2695643126 -0.1792909094
H -1.0535420979 1.4097943917 1.7962420691 -0.2879643049 0.3497663766 0.2260911941
H -2.2792442510 0.2016399456 2.4344297487 0.6019115243 0.6052974434 -0.2566429818
H -0.0462270022 -0.7710945613 1.4561366922 1.0865632885 0.0193946081 -0.1339323367
H -1.5943459258 -1.4310943163 0.9463474397 0.2813524378 0.2222506982 -0.0372960846
O 0.3863305772 1.4738200814 -4.7536408663 0.4599486037 -3.7082403107 -5.6005466134
S -0.0149424069 1.9683205837 -3.3843760780 3.8532342537 2.8515021280 -2.4868695421
O -0.1743285913 3.4602768069 -3.4833007867 -2.3527626735 6.6667562750 0.6557413573
N 1.3547537247 1.7076898640 -2.3604935303 0.8023594741 -1.0450515023 2.5196037515
S 2.6882106864 2.4925806639 -3.1036260666 -1.1541495171 0.7283498010 -1.1287981018
O 2.3182360007 3.1891473459 -4.3979046591 -1.8689203996 3.8747802130 -4.4299016964
O 3.7977613833 1.5526911136 -3.4580638612 5.7629580664 -4.9257304466 0.0590320536
F 3.2439491976 3.6424343560 -2.0182090491 0.8805537251 2.0801976338 2.6129471610
F -1.3366171282 1.1999775909 -2.7730333189 -4.1149993884 -2.1168717642 0.0262459699
39
energy=-47319.1817162556 config_type=IL_pair name=Pyr14-FSI Properties=species:S:1:pos:R:3:forces:R:3
C 3.9579047219 0.1368393640 -0.3776681871 1.7780383259 0.1761136615 -0.9754053387
C 2.8110288502 -0.6723959926 0.1465008053 -0.4120310587 -1.9111329800 0.4985101104
C 1.5309671673 0.1122957162 -0.0619830088 0.6785962654 0.1190379272 -0.5777378675
C 0.4048286261 -0.7426200782 0.4809897115 3.6900628188 -2.0421023766 1.7146213979
N -0.8784966613 -0.0853381515 0.3327262488 1.4934683392 -0.7698234344 0.9385118954
C -1.0295043473 0.8165842952 1.4355579756 -0.0486085497 2.4024438961 5.2511048289
C -1.9775998554 -1.0105317530 0.3222083815 -3.5375938279 -2.3261064573 0.5301315438
C -3.0877847444 -0.1141761641 -0.2251314172 -1.9585070467 -0.7445994880 1.3940441018
C -2.4226416495 0.7828740142 -1.2442154356 -2.4657704276 -2.5007606458 2.3940914025
C -0.9539970466 0.5283708235 -0.9595883892 0.6521834460 0.8376981562 -5.3955648544
H 4.9415769329 -0.3145556139 -0.1371816094 -0.2890627616 -0.0726493688 -0.2146544718
H 3.8364702748 0.2017836136 -1.4912509213 0.3477244715 0.5446762380 0.8546940412
H 3.9446690072 1.1203247310 0.1080145159 0.0213617774 0.3392372954 -0.4069509809
H 2.9041290821 -0.9077089461 1.2212594138 0.2709837123 -0.1449890835 -0.0500614172
H 2.6778080580 -1.6211386748 -0.4225604389 0.5031003106 0.1567537524 0.4150159013
H 1.6453755392 1.0492785361 0.4890935719 -0.3896442928 0.4939439482 -0.1629548423
H 1.4489513432 0.2722863531 -1.1497658579 -0.0089161078 0.5991411823 0.1456734176
H 0.4012336251 -1.7157608522 -0.0253014740 -0.2814777554 -0.1704882653 -0.2746090000
H 0.6562946070 -0.9290027984 1.5634417548 -0.8189857887 -0.0371785752 -0.6771956601
H -1.7816149006 1.5942447315 1.2901035480 -0.0659796925 0.3311183695 -0.4870750079
H -1.3538280341 0.1971510220 2.3113573580 0.1068558977 0.4612211206 -0.4434850036
H -0.0529463594 1.2490188521 1.7503731266 -0.4765815415 0.1904988232 -0.6412895241
H -2.1847707101 -1.3556191382 1.3477509196 0.1943474606 -0.5693903716 -0.1262098939
H -1.7283293268 -1.8026390771 -0.3846331801 0.0238686126 -0.6444926841 -0.0320252349
H -3.5007916576 0.4623999291 0.6250715976 -0.5714211572 -0.4325161014 -0.3045493843
H -3.8270725103 -0.7414829768 -0.7360951000 -0.6210812191 0.0276672654 0.5152771946
H -2.7097239221 1.8346357279 -1.1632487783 0.2015175053 -0.0945979923 0.6280874222
H -2.7053725028 0.4686168815 -2.2814659280 0.4685095197 -0.1756740923 1.6366252122
H -0.3229639722 1.4301615447 -1.0617449267 -0.5854531716 0.4175585028 0.1899613962
H -0.6437996344 -0.2438959186 -1.7026142766 0.4183453196 0.3056318289 0.4582671497
O 2.1510097056 3.7501280161 -4.1300414951 2.0699788117 3.9142366411 -4.4135488621
S 1.4499506811 3.0326399872 -3.0003113107 -0.7148468871 0.2312320685 -1.2212256275
O 2.4677972556 2.1008102650 -2.4003485968 3.5416704557 -4.6467377023 3.9080205283
N 0.1145947743 2.1936379724 -3.6801940965 -0.9098875146 -2.2963923291 -2.3521461026
S -1.3853924033 2.6506321853 -2.9846961042 2.4513169525 -0.0837422720 -3.7139059327
O -2.3223456439 1.4822475468 -3.1844246982 -3.1590169867 -1.5879202647 -7.0297195792
O -1.2626921443 2.8985010794 -1.5165635901 1.1116422617 4.1409611655 7.0707860831
F -2.0774614680 3.9686944973 -3.7233589127 -1.5156225883 3.2049210325 -1.5788905286
F 0.9724068157 4.1185935461 -1.8158430578 -1.1858048893 2.3633965297 2.5480973977
39
energy=-47264.1833485638 config_type=IL_pair name=Pyr14-FSI Properties=species:S:1:pos:R:3:forces:R:3
C 3.4493090822 0.4433161030 -0.3339940434 2.2839722701 2.0088918731 -2.5731585403
C 2.8951812913 -0.3520365977 0.8022643235 1.4007229211 -1.6215331975 1.9160818967
C 1.4118545693 -0.1015895429 1.0507033098 0.9985609330 0.8858681952 1.8458446840
C 0.6715481211 -0.4765174833 -0.1935962389 5.9037007675 0.4655560588 -2.0810942352
N -0.7299217276 -0.3124565992 -0.1576675172 -0.5037471983 -0.1588134851 -0.5696586607
C -1.3328718151 -1.4863768874 -0.7667221947 1.0714995843 -11.5907715844 31.3626710397
C -1.3236122039 -0.1755840587 1.1350795488 -2.1689893465 0.3187069357 5.4293036889
C -2.6754437164 0.4593671258 0.8701988438 -1.6737490311 0.6991091670 2.5312272238
C -2.4260970055 1.3518138662 -0.3179720188 -2.3706490283 1.7958040018 -0.0074613479
C -1.1851558798 0.8112306769 -0.9662768691 -0.8560206821 5.4173284399 -3.4277678002
H 2.7742175687 1.2621297759 -0.6953188805 0.5801169007 -0.3837073303 0.5222629141
H 4.4373049800 0.8947133157 -0.0313177732 -0.9813329863 -0.0953899250 -0.3502207203
H 3.6977563835 -0.1650119202 -1.2403680741 -0.4004950443 0.1502364055 0.6249732986
H 3.4922733245 -0.1532618368 1.7382416636 -0.7694851698 0.0681468267 -0.6498455285
H 3.0885754529 -1.4237236048 0.5924721160 -0.3924038220 0.0676266645 0.1495976794
H 1.1483197974 -0.6873147975 1.9335442433 -0.5546476507 -0.2709103268 0.1758798758
H 1.2922203292 0.9721647974 1.3000691702 -0.1747768060 -0.2218807769 -0.0842701365
H 1.0651037683 0.1940549053 -1.0115794068 -0.3231853469 -0.7274652471 0.5794745661
H 0.9758236023 -1.4932816982 -0.4916076302 -0.4108287651 -0.1804696123 0.1448956760
H -1.3193014128 -1.3588577432 -1.8597398582 40.4406787679 -223.9473343827 171.7457215546
H -0.7208425096 -2.4055494741 -0.5524527358 -0.2792744407 1.2686871717 1.7175932598
H -2.3578635751 -1.6655791631 -0.4143792926 0.5451003382 0.3713051094 0.5195325694
H -1.5044465664 -1.1693067824 1.5973415199 0.8375857837 0.2662706019 0.0655873427
H -0.7971704920 0.5299423972 1.8057986636 0.4613881687 -0.4723950634 -0.1793348305
H -3.4599064160 -0.2730375125 0.6811789146 -0.2072342828 -0.4101135259 -0.1877788365
H -3.0084790850 1.0467869862 1.7734259729 0.3013456370 -0.5546816108 -0.7668356599
H -2.3232833678 2.3981973904 0.0141900606 0.1141178913 -0.0140745651 -0.2357067714
H -3.3303405015 1.2753703689 -0.9564494116 0.5302813194 0.3757807780 -0.2284887372
H -1.4910627185 0.4837732608 -1.9968236198 0.9711896974 1.1005067372 1.4478396014
H -0.4136892776 1.5766247323 -1.0965273227 0.3868792814 0.1776520504 0.4487435346
O -2.4891800129 -3.1416188099 -1.1379969813 -6.1318858658 -7.0877458525 6.4604126959
S -2.0115291714 -2.5476499714 -2.4260518941 -8.6307667732 -13.9543633314 -7.4826272087
O -0.8387765941 -3.3825630194 -2.8929274240 5.7770450597 -3.0372243008 -2.9100853877
N -3.2109321069 -2.5077693834 -3.6450510574 1.7969931255 0.5634117696 -3.8638699018
S -4.8067254232 -2.6873925610 -3.0642742735 0.5201320624 -0.2755641980 -0.7308743818
O -5.6755296070 -2.8341429417 -4.2973360192 -2.7477791122 -1.7942186890 -5.2316761995
O -5.3237569583 -1.4849927912 -2.3436021207 -1.6700390436 5.5633993079 5.0240973829
F -5.0423271033 -4.0615150375 -2.1619975384 -0.1374487008 -3.2211406431 2.2532184689
F -1.3771832557 -1.0175651159 -2.1291050109 -33.5399196646 248.4627452299 -203.3898709325
39
energy=-47321.1523924517 config_type=IL_pair name=Pyr14-FSI Properties=species:S:1:pos:R:3:forces:R:3
C 3.6441747591 0.3573451310 -0.6975563532 0.6428590109 -0.1928339279 -1.9738365380
C 2.1936202315 0.5175726476 -0.2259098029 1.4798423312 3.2937898003 0.0233936752
C 1.6379344206 -0.7456286775 0.3150570373 2.8724181219 -2.6886628451 0.8558045988
C 0.2451684409 -0.7283212334 0.8190430852 0.1618833659 -1.9752216948 5.1600684077
N -0.7920009176 -0.3922751612 -0.1387275799 0.8519157272 -1.9087993643 -0.5347418728
C -0.5032820663 -1.1320411605 -1.3563817839 -0.1880161562 -3.4428388415 -3.4633750541
C -2.0862030300 -0.7499894079 0.3940223600 -4.1170725756 -2.2324103590 2.5445145292
C -3.0239176308 0.3103778950 -0.1193300198 -2.5159726815 0.3469251763 -1.1824759309
C -2.1795168024 1.5594776702 0.0663335152 -0.8884214469 0.2267591091 0.7870636838
C -0.8137053135 1.0123993833 -0.3289574619 1.3256883305 7.6049620346 -0.6371547791
H 4.2088399408 -0.3679025479 -0.1011827878 0.2837512518 0.2200455276 0.2632496827
H 4.1132165753 1.3613709803 -0.7319127518 0.1886082818 -0.4997117343 0.2910113604
H 3.6358339607 -0.0044204772 -1.7598459852 0.1677777478 0.0302683434 0.7843538401
H 2.2723843807 1.2874245580 0.5958874655 -0.8205689986 -0.4529421745 -0.7470774839
H 1.6869112044 0.9370058483 -1.1125784634 -0.5118452745 0.0062153509 0.5215661102
H 1.8502592535 -1.5769719199 -0.3965729972 -0.4989431090 0.3155822483 0.2362885596
H 2.2821566609 -1.0139772893 1.2110504444 -0.7687452141 0.2181980163 -0.7163607981
H -0.0476178886 -1.7262926647 1.2658281812 0.4765313946 0.5987385388 -0.6094281257
H 0.1028164878 -0.0092935330 1.6606841990 0.3809802961 -0.1941761827 -0.2783150804
H 0.0669657935 -0.5225848599 -2.0545025635 0.3635409002 0.2453837646 -0.3943149304
H 0.0119424418 -2.0729457218 -1.0874348580 -0.0490216108 0.2504272221 -0.1423215358
H -1.4317955206 -1.4298384546 -1.8873692240 -0.0468783168 0.5012655926 0.0687131935
H -2.3839285530 -1.7852103719 0.1117801583 0.3591809558 0.2841485808 0.2555301959
H -2.0480269466 -0.6282818670 1.5016250784 0.1405588643 -0.4637297304 -0.3358744966
H -3.9415401965 0.3507066956 0.5031202445 0.0976367614 -0.2113155091 -0.4797787968
H -3.2645391257 0.1606889078 -1.2073450415 -0.0663012374 -0.1190712146 0.4012790546
H -2.2350475837 1.8477331089 1.1348548628 0.3406720921 0.1578573080 -0.2427964582
H -2.4887900449 2.4068893268 -0.5426745431 -0.0983630561 0.3187971989 -0.3704633385
H -0.1090548341 1.4857480420 0.3804750283 0.3994215125 -0.1606700514 -0.7362706600
H -0.6032580972 1.2912351530 -1.4015941743 -0.3887969160 -0.6043457661 -0.1747828608
O -4.7922630047 0.1286061534 -5.4488621917 -6.4389482703 -0.7328060184 -4.2999113113
S -3.5803123426 0.4673795933 -4.6631679609 3.3549000288 -0.2893986443 -0.1492007844
O -3.2971345694 -0.5489637298 -3.5683471480 0.6899654072 -3.2764456127 5.3867873828
N -2.1409950744 0.4420402074 -5.6419966370 -0.7522375296 -0.2359972264 -3.3733986510
S -0.8108704240 0.7944780719 -4.6078147237 -2.7085789366 0.0528519996 -2.1870976738
O 0.2380840910 -0.2396384929 -4.8081204869 5.2342501132 -5.6253836203 -0.0979918888
O -0.3458993580 2.1832182655 -4.9037588810 2.0854019822 6.7998983962 -0.4239163323
F -1.2753243761 0.7396917655 -2.9858112091 -0.6707794588 0.4587730165 4.4488409711
F -3.6685305922 1.9841424181 -3.9603012596 -0.3562059000 3.3785702327 1.5155070099
39
energy=-47311.9486464186 config_type=IL_pair name=Pyr14-FSI Properties=species:S:1:pos:R:3:forces:R:3
C 3.7127733980 -0.0730360757 -0.1089416747 -0.0011381637 -0.8538502797 -0.5822727382
C 2.2707404967 0.1180165035 0.3730608699 3.2126277463 0.3259312668 0.8605091917
C 1.5106585980 0.9242528437 -0.6319581817 2.2079477706 0.4272151309 -5.3517390001
C 0.0985778512 1.2238306454 -0.3320015809 -5.5991265448 6.0017685058 -13.6066487373
N -0.7575786768 0.0575954497 -0.2148620460 0.4125019835 0.9458970553 -2.4733302166
C -0.4151556668 -0.8537587513 -1.2885212606 -2.3719428573 -3.4496790796 -3.9985961278
C -0.7451036333 -0.5328187159 1.0707102128 0.8013725223 -5.3342120797 6.9029213431
C -2.1640336190 -0.6181026556 1.6142702904 -1.8635267946 -1.0171517686 -0.2430998467
C -2.9384297107 -0.5495557107 0.2885923980 -2.9604397892 0.1525169942 1.3254308657
C -2.1472411115 0.5202143675 -0.3933880189 -2.6062736643 0.8059269580 -2.5595605588
H 4.2539296005 -0.5229149207 0.7325294344 0.6350976181 0.1307125045 -0.2286891246
H 3.6643288879 -0.7840250360 -0.9435025667 0.6130260823 -0.1366139698 -0.1926568219
H 4.1613159459 0.8685475730 -0.4744940830 0.0463542950 -0.2280871415 0.4042050699
H 1.8774218574 -0.8575504029 0.6182624745 -0.6328172443 -0.6041201884 0.0618289549
H 2.3690395614 0.7222844394 1.2958310336 1.1457585928 -1.4274099687 -0.0988677372
H 2.0303140362 1.9231300532 -0.7925584747 -0.4176800763 -0.9836694108 0.4099039927
H 1.5725581243 0.3881527202 -1.6319380416 0.3176792078 0.8176041951 0.8379330899
H -0.3701352970 1.8516685797 -1.1492414241 0.4489299507 -1.3722086568 -1.0263638169
H -0.0108646691 1.7536917057 0.6525991504 -5.9628271473 3.6767546142 -5.0758937558
H -1.3738816418 -1.4178357509 -1.4935826762 1.2295354778 -0.1586774253 0.1715071163
H -0.2210002044 -0.3246652130 -2.2403067641 0.1799785648 0.2278384504 0.4503809967
H 0.3859335636 -1.5526637029 -1.0800944279 0.5782255897 -0.2273933024 0.4769366085
H -0.1618114278 0.1114063777 1.7590284672 -0.2845507694 -0.7905158751 -0.6001039836
H -0.2727422358 -1.5457769347 1.0988934165 -0.2616235108 0.5593512605 -0.6083060975
H -2.3680702200 -1.5340510759 2.1779829533 0.0941453942 -0.1355406408 0.2252072289
H -2.4464019307 0.3012907011 2.1670630910 0.6038095106 -0.4447887611 0.2001151020
H -2.9661947376 -1.5031001005 -0.2271134592 0.0183081164 -0.5136455028 -0.5124904992
H -3.9834544796 -0.1953737151 0.4529837139 0.4037956003 -0.3481740090 -0.2110347522
H -2.2025329828 1.4549933975 0.1716358329 -0.1015932768 0.4628816168 0.4099051151
H -2.3629596761 0.6461534043 -1.4709386585 0.1002400616 0.2157896578 0.1465467405
O -2.2337686013 3.0235952730 3.7986396153 -4.6758884046 -1.6361567849 5.9234214782
S -1.2618579857 3.0677270430 2.6746825109 2.4846248116 2.4201907993 1.3609285187
O -1.5443939609 4.3025668040 1.8772465249 -1.0740085969 5.0324725803 -5.0791719409
N 0.3772997807 3.1244651223 3.2388960286 0.9066017127 -0.1977076281 2.6471243326
S 1.4372632081 2.3432644640 2.1030092260 1.1477541269 5.8049481857 6.7958601244
O 2.5547208634 1.7319065091 2.9119036687 4.3128109237 -3.8188300277 3.4367838670
O 2.0392980737 3.3265020664 1.1454249041 1.9486777616 4.1896863135 -5.4371507959
F 0.6534010253 1.1997804415 1.1913323928 5.9679915920 -6.0110200101 17.0637580270
F -1.4238500095 1.6653937015 1.7934375265 -1.0063451832 -2.5111578051 -2.2275202832
39
energy=-47315.5722417402 config_type=IL_pair name=Pyr14-FSI Properties=species:S:1:pos:R:3:forces:R:3
C 3.5344214703 0.1349712002 -0.4166480945 0.8345035784 0.0180065724 -3.0130213100
C 2.8801250778 -0.3877194828 0.8194556653 1.5217918610 -1.0138048140 2.9916582322
C 1.4041573524 -0.7104493849 0.6439463329 0.8022247169 -2.9723491786 -0.7038205786
C 0.6705550311 0.5139798319 0.2452709033 5.2491552093 0.0060204584 -1.0676058327
N -0.7350149089 0.3819227607 0.0387401841 0.4724780144 0.8408515871 -2.3935024647
C -1.2795754174 1.7257278447 -0.1070081395 -2.4217214486 0.9768825082 -5.9991191028
C -1.5023911339 -0.2443512885 1.0470350708 -3.0192222105 -2.6649547573 5.2016920125
C -2.7386691597 -0.7711285734 0.3421126502 -2.6308311078 -2.1558791542 1.7291014099
C -2.4437489408 -0.7678958593 -1.1244081400 -2.3542819869 -1.3285828824 -2.5950023909
C -1.0412897357 -0.2699322568 -1.2413401663 0.8074518066 -1.6953692199 -3.8923739740
H 3.7520412234 1.1992014505 -0.3214781708 0.1719581283 0.3967779732 -0.0175607731
H 2.8606349334 0.0132707469 -1.3064064473 0.6364956137 0.0721613918 0.5253754865
H 4.4740254535 -0.4115948861 -0.6632495376 -0.3799395735 0.4149239720 0.2118742845
H 3.0091079751 0.3616964302 1.6357582623 -0.3707309778 0.0806112566 -0.3630933244
H 3.4392985703 -1.2925020451 1.1924103109 -0.7483004017 0.4349987161 -0.4400533906
H 1.3526917244 -1.4860771329 -0.1517657945 -0.1913981646 0.0502890697 0.1739527045
H 1.0853880903 -1.2038861539 1.5552065894 -0.6879048548 0.0632573050 0.7002185449
H 1.1053901816 0.8677876214 -0.7146048731 -0.3952603853 -0.0291302458 0.3243309549
H 0.8395557896 1.3267750265 0.9830624793 -0.7753262482 -0.5469732132 -0.3672733282
H -0.9443742796 2.3039196735 0.7848046185 0.8116647827 -4.2190385829 -7.5767739956
H -2.3861184319 1.7143952277 -0.1573749043 1.1802804063 -1.0992596289 -1.4779225257
H -0.8053640587 2.1920396477 -0.9866851140 -0.0094166663 -0.1377923266 -0.1055438146
H -1.8426728684 0.4568359684 1.8424707138 0.5994140777 0.2208150185 -0.4319916881
H -1.0391054405 -1.0955776839 1.5631725211 0.8809830151 0.1056734546 -0.2480714527
H -3.6329289651 -0.1764351282 0.5947889534 0.1202918196 0.0393365835 -0.0913756117
H -2.9673574067 -1.8268621750 0.6517786826 0.2114426564 0.8791560575 0.1676359434
H -2.5327210902 -1.7901023805 -1.5903852588 0.0083787930 0.8745084330 0.4540953321
H -3.1784152866 -0.1151743035 -1.6457557118 0.5005291611 -0.2062200624 -0.0209887520
H -0.3414575997 -1.1030059779 -1.4371198277 0.1283822336 0.1320064053 0.1302965641
H -0.9961881494 0.4601712824 -2.0757837578 0.6628044722 -0.1347740281 0.3923343893
O -1.4210559349 4.6681753385 1.9282070414 0.6198048572 5.9793791480 0.4868231638
S -1.4225080685 3.1598627722 2.0229049541 -1.7330737824 4.4368722795 5.0740772475
O -2.5475914924 2.6128674329 1.1695413022 -8.1316346184 0.2638681562 2.1602862865
N 0.0323543273 2.4774923525 1.4263973204 3.9826613813 1.3525475211 2.9364109803
S 1.4155117583 3.0147533415 2.2843530644 -0.7708274600 1.8178602768 2.1241945131
O 2.6194504661 2.3394631401 1.7073033396 5.5322958900 -2.5123253785 -3.9932947822
O 1.3289281719 2.6569580370 3.7488065138 -0.9739355437 -0.6721185495 6.0433642616
F 1.5605112902 4.6815269285 2.2020960381 0.2166160738 3.2311478908 -0.5516632895
F -1.7504764673 2.7194954719 3.5933381806 -0.3628927207 -1.2972894778 3.5224003981
39
energy=-47297.5006798452 config_type=IL_pair name=Pyr14-FSI Properties=species:S:1:pos:R:3:forces:R:3
C 3.5835114047 -0.2855723204 0.8396511379 0.5866997132 1.8511269153 0.8600388839
C 2.3332709730 0.0771947730 0.0338531836 2.3289802410 1.8772644917 -0.8555362824
C 1.4873139773 -1.1542890183 -0.1565674750 13.0308557016 22.0306932905 -29.3027679311
C 0.2758437698 -0.8379003127 -0.9426998031 2.7607810689 -1.6444726551 -8.8059845301
N -0.6366984945 0.1099040485 -0.4144501067 -1.9567779990 -0.4324656494 0.2506368995
C -0.3134679168 1.4861360537 -0.5612666827 -0.1529103392 6.6359074947 -1.5502187005
C -0.9144530500 -0.1798646795 0.9791757165 -0.2125443767 -1.2013260072 4.4832998912
C -2.3728477255 0.1808842150 1.2053860271 -1.2157189511 -0.2564553385 2.8071722294
C -2.9611374348 0.4298145406 -0.1550550027 -3.0077494042 -0.1820027771 -0.4977738647
C -1.9261194835 -0.1327240929 -1.0782198286 -2.3722413556 0.9599102162 -3.9747378222
H 3.2870273649 -0.2648592996 1.8968244323 0.4606235320 -0.3918900036 0.1811309214
H 4.3123027120 0.5186041732 0.6719791069 0.3451707735 -0.1771339966 0.1797196382
H 3.9230724005 -1.2855063096 0.5002344862 0.2129777127 0.8029558646 0.1298610824
H 2.6962913397 0.4393255373 -0.9715693715 -0.4752937689 0.3022967310 0.5000580241
H 1.8509339247 0.8822080378 0.5800313909 -0.5767023088 0.6520348312 -0.0767976303
H 2.1607612642 -1.8960930243 -0.6780372410 1.9842203533 1.7047200330 -1.4500496345
H 1.2809025835 -1.5809830843 0.8452022554 18.7453258636 17.2341295612 36.2667328243
H -0.3069463472 -1.7978207236 -1.0878483648 0.6100463932 0.7898324675 0.0862461127
H 0.5250639169 -0.5285898377 -1.9858028594 -0.5451849570 0.7325318264 -0.0665613405
H -0.2576708460 1.9636701949 0.4321333515 0.7215966883 0.0743403795 -0.3126224738
H -1.1814361531 2.0117347809 -1.0641686503 0.8522369854 -0.4180847909 0.4865766150
H 0.5486189965 1.7083654028 -1.2299502524 0.0933830173 -0.5111134809 0.6323902677
H -0.2439239940 0.4448224410 1.5855263600 0.2602826101 -0.4683587372 0.3211675380
H -0.7449557779 -1.2744642064 1.1675709393 0.1285716240 0.6755814149 -0.0861364819
H -2.8820035576 -0.6875734342 1.6751909807 0.1910652915 0.3605459714 0.0401410647
H -2.4857264931 1.0373184665 1.8959029310 -0.0135658439 -0.0994611151 -0.1769850442
H -3.1699410599 1.5006982227 -0.3431719331 -0.0499769423 -0.3176507741 -0.0374202554
H -3.8923141587 -0.1839252906 -0.3091252728 0.4479073362 0.9550636008 0.1923110212
H -2.0680031204 -1.1981073386 -1.3122278850 0.0803990852 -0.0697060149 0.1345887330
H -1.9072690148 0.4975920850 -2.0015120693 -0.0016931281 -1.1034118143 -0.0723309315
O 3.0804172726 -2.6495816885 2.2598891044 -1.7685792003 4.5968653269 4.3352687295
S 3.3503061989 -3.5179589086 1.0521612253 -2.9284841094 -2.9141930774 1.8358076140
O 4.5111240609 -4.3961402870 1.3875170657 5.9061195156 -4.4659761692 0.0516220867
N 1.9403400533 -4.4399799577 0.6222350608 -0.1168118282 -4.4815976597 -2.4864353024
S 0.5995176064 -3.3778950337 0.9457754546 -1.8144429969 -19.1734684084 8.7178364634
O -0.6494031266 -3.8532557421 0.2873616960 -6.2699363344 -3.5884478351 -3.5731804451
O 0.8964079881 -2.0055169392 0.4217355066 -27.0330424804 -19.7791188467 -11.1951425531
F 0.4788038393 -3.3319259531 2.6173950397 -1.2461455161 -1.8274854795 7.1300886949
F 3.6413142334 -2.5054353067 -0.2330421957 2.0137028360 1.2747559712 -5.1100615372
39
energy=-47321.4450728029 config_type=IL_pair name=Pyr14-FSI Properties=species:S:1:pos:R:3:forces:R:3
C 3.4284483978 0.1596446874 -0.7963523948 1.8640501831 -0.8930115725 -1.6959750940
C 2.9644015514 0.2267569678 0.6241189370 -1.2420721771 3.0335899639 1.3247341126
C 1.5907159605 -0.4174196560 0.7784358452 1.0168282029 -2.6420034063 -0.5213387788
C 0.5894229003 0.3023517217 -0.0889178182 3.0733361943 2.6131028239 0.7792355758
N -0.7422940241 -0.2509354425 0.0023647765 0.7112433795 -0.1239446340 -0.5862559374
C -0.8172366094 -1.6246089401 -0.4126924322 -1.7974928520 -4.8114099365 -1.1564187599
C -1.3154713792 -0.1388158683 1.3126282741 -2.4419867120 -0.2386944939 5.9714392432
C -2.5213774413 0.7903682900 1.1966533255 -0.5523337214 1.1553746718 0.0565479537
C -2.9098118788 0.6626069886 -0.2830277334 -1.6767776087 1.4770601758 0.1216095735
C -1.5640178741 0.5193621743 -0.9153662711 -1.5108126324 2.6852653225 -4.2119690802
H 3.2632652045 -0.8803657731 -1.1897942820 0.3278581453 0.9374525153 -0.1472887121
H 4.5148259835 0.3959169646 -0.8022422461 -0.3480661693 -0.3215809280 -0.3320949431
H 2.9522049103 0.9186454856 -1.4392254900 -0.1529450277 -0.3502768268 0.0111905152
H 2.7960219028 1.3173437136 0.8447919669 0.4917524480 -0.6344013516 0.2754588049
H 3.6801619462 -0.1320422488 1.3581440140 0.3723172140 -0.5984325296 0.2414803386
H 1.2889880122 -0.5122927468 1.8168386986 -0.2849635916 0.2507819523 0.6001545213
H 1.6840515486 -1.4440302140 0.3649644615 -0.0421764843 0.0792591173 0.3862444263
H 0.5203036383 1.3513798282 0.2700752213 -0.1062638210 -0.0877009337 -0.2649693640
H 0.8662167379 0.3198794353 -1.1418931344 0.3018555589 -0.2032263898 -0.5460558167
H -0.2985668812 -2.3020734658 0.2761579572 0.2809515870 0.0886249758 0.0575062932
H -0.4938334772 -1.7711567672 -1.4586981145 0.5804569749 -0.2918791925 -1.0410845877
H -1.9085123413 -1.8849374144 -0.3907997773 0.7820067416 -0.0337348560 -0.0128515608
H -1.7432277150 -1.1072184474 1.6599883699 0.8124203907 0.0700125333 -0.3051672330
H -0.6107157711 0.2167827673 2.0883606374 0.1296018178 -0.1404355199 -0.4114439470
H -2.1990392693 1.8326722155 1.4012829807 -0.5119684799 -0.2696378911 0.2601842798
H -3.3699951923 0.4581101498 1.8027851610 0.1168310157 0.3015697445 0.6829541814
H -3.5804454429 -0.1929421454 -0.4489599630 -0.1113647158 0.0932676096 -0.2147328300
H -3.3510276288 1.6356050285 -0.6228839596 -0.2198684388 -1.0255579045 -0.0139759452
H -1.1360957010 1.5428166398 -1.0409757666 0.0564581484 -0.6183341784 0.0401935168
H -1.5773600675 0.0085960718 -1.8952591945 0.2236934091 0.0050088429 -0.2798973956
O 0.6736007228 -3.3066440729 -2.5471218228 1.4418922839 -4.4793824223 6.3677229930
S 0.4412475740 -2.5430951774 -3.8056688094 2.0259909337 0.4486325376 -2.8156369842
O -0.7403844627 -1.6322771036 -3.5981963421 -5.4939672475 4.5427845113 0.9221818439
N 1.7643287642 -1.5827270349 -4.2997114760 -0.8780756204 3.8664485880 -0.1820568989
S 3.2076502747 -2.4637962146 -4.4972053776 -0.5003524808 1.3351324316 -0.1743332341
O 3.1093445149 -3.5982008587 -5.4630423918 -1.1941735798 -6.6544286536 -3.7163280785
O 4.2365871319 -1.5104804417 -5.0735896585 4.0180610890 4.5449031140 -1.0460688880
F 3.8376310961 -2.9842254202 -3.0455978710 1.1089632602 -1.2388701027 3.7335714412
F -0.0234970269 -3.6240449894 -5.0129193378 -0.6730885842 -1.8814469004 -2.1572133929
39
energy=-47316.4211979131 config_type=IL_pair name=Pyr14-FSI Properties=species:S:1:pos:R:3:forces:R:3
C 3.4445060431 1.2073890336 -0.4947748317 0.6492180033 0.6969232598 0.5555058061
C 2.2598626993 0.4117785948 0.0712894255 2.4478960827 0.4587864730 1.3558616872
C 1.5778763305 -0.3810521464 -0.9893707101 2.0068202364 -0.8001446273 -2.0182153934
C 0.4367556393 -1.1574343174 -0.4471615580 2.3737203053 -5.6120851160 -2.2181081889
N -0.6215607306 -0.4235109171 0.1639367116 -1.3638264488 -2.0135607039 0.8360164288
C -0.3995037267 -0.1737812059 1.5796183029 -4.2877824076 -9.7699578412 1.2583663305
C -1.8102987059 -1.2890383391 0.0731371079 -2.1511132073 -3.9842623685 -2.7326098437
C -2.9742632242 -0.3990133943 -0.1965950542 -4.4324234735 -1.4512231388 0.9285178589
C -2.4447233001 0.9530877906 -0.5470014837 -2.3776063763 1.7104479099 -0.8590327918
C -0.9570652639 0.8189348037 -0.4595301636 0.9903034179 6.6301074703 -2.4628845177
H 3.9832594866 0.6364093170 -1.2566063701 0.0800738392 0.1196889766 -0.3430327766
H 4.1346367881 1.3847770493 0.3458902707 0.1460927265 0.1864289880 -0.2074324396
H 3.1128231956 2.1954281836 -0.8558068651 0.1844217570 -0.2415589758 -0.3797272515
H 2.7184216038 -0.3198119104 0.7813420485 -0.6830899673 0.4809205675 0.0196435562
H 1.6582958639 1.1397654605 0.6108616879 -0.7841192543 -0.1157905603 0.5432814084
H 2.3455881634 -1.1395926386 -1.3333190716 -0.8888809841 0.5708857392 0.1224952498
H 1.3486974617 0.2128692281 -1.8847772092 -0.3595553053 0.1312005447 0.0045148599
H -0.0180807026 -1.8159782075 -1.2459048656 0.6158410560 0.8627127955 0.3177866502
H 0.8005953190 -1.9071140549 0.3167888485 -0.2044303187 0.7896876948 -0.5267663538
H -1.1565546524 -0.7027597665 2.1955041767 0.2606237088 -0.1358867903 -0.2866429582
H 0.5854863638 -0.5999433615 1.8445907225 -0.4078905236 0.2058315890 -0.1421557526
H -0.3823832791 0.8938223279 1.8234920755 -4.8061650892 -3.3899149773 -3.5015016515
H -1.8978213741 -1.9569395422 0.9280869467 0.0449456944 -0.0417971875 0.5823409175
H -1.7129125774 -1.9656679584 -0.8262019474 0.1988336110 0.5050986619 0.7563179546
H -3.6372783416 -0.7948610835 -1.0061294402 0.6407117166 -0.0217150169 0.4231708476
H -3.6306089527 -0.3910294242 0.7115492378 0.3043897004 0.6504067024 -0.3359398624
H -2.7901990329 1.2302627760 -1.5733654399 0.3885080609 0.1668172960 0.6734901963
H -2.8684796575 1.6686486794 0.1960329539 0.3161489379 0.0954067257 -0.2308424191
H -0.4834829110 0.9763892205 -1.4546812054 -0.1109555969 -0.5816601805 0.3722330974
H -0.6215885255 1.6879658028 0.1807850808 0.3332701111 -1.0162803093 -0.6466452730
O -0.5153405274 1.6640349077 4.5415819880 -0.1793280888 -4.1027541452 5.2944688119
S -0.4693843537 2.3539865412 3.2035803008 -3.7103089019 4.1222187066 3.8513580406
O 0.3614390602 3.6041666854 3.3949463223 3.5542151617 5.2508325281 -0.8551781127
N -2.0328386563 2.7054790007 2.5944840353 -0.0874772580 3.5724214324 -3.6647075879
S -3.2555572345 1.6893414085 3.2340322256 0.6912202185 0.3393649658 0.6405551747
O -2.7157348658 0.3509197918 3.6754589408 2.4192679724 -5.3980928583 2.7282754827
O -4.2650087461 1.4520483911 2.1328966487 -4.4224345132 0.0672737433 -4.7594803892
F -4.1064454207 2.4304539831 4.4850883360 -1.1325370964 1.5380873299 2.2068681688
F 0.4043083955 1.3503071602 2.1865050035 13.7461443441 9.5227270332 2.6986319310
39
energy=-47291.8454037047 config_type=IL_pair name=Pyr14-FSI Properties=species:S:1:pos:R:3:forces:R:3
C 4.0166526310 -0.7289059468 -0.0052947871 -0.3131050220 -2.7478650658 1.3415172601
C 2.7257933659 -0.3411362622 0.6820455065 0.7398102493 -1.7354547976 2.8470766155
C 1.5742529044 -0.2108850951 -0.3227827861 -4.7854578061 -8.7475085492 10.7504940256
C 0.3702984433 0.1710173144 0.4701139102 3.0422088071 -0.6865049811 5.0396129756
N -0.8293253137 0.3465505577 -0.2777942176 -1.8523564281 0.9227991724 -1.0394284567
C -0.6476928470 0.9952205316 -1.5618366682 -9.8186512751 -3.3395469720 -0.6196349700
C -1.5133514609 -0.8940176771 -0.4609892971 -2.1193490356 -6.0949014913 -1.6460299685
C -2.6460463228 -0.9428698409 0.5420151164 -1.5342559300 -2.0676845162 -0.2642638684
C -2.9965058866 0.4983880262 0.6939501619 -2.6723537143 1.1889025383 -0.0967090869
C -1.7018041596 1.2145600092 0.5085934824 -1.2788142163 4.7553176738 3.3387034616
H 4.7069274792 -1.0834225525 0.7955998444 -0.2227246312 -0.0072165590 -0.6757250575
H 3.8690207403 -1.5143431175 -0.7641253631 0.0898792158 -0.1404678035 0.4596732296
H 4.4993295030 0.1780043386 -0.4480669288 -0.2188682573 -1.4097524314 1.8263293014
H 2.9084189549 0.6546022634 1.1415983265 -0.0735525301 -1.4101686520 0.8278289001
H 2.4415767725 -1.0398802764 1.4751362844 -0.1894138471 -0.8885314628 0.2370528653
H 1.4155936684 -1.2028376065 -0.7752536657 -1.8524337064 -1.9950244421 1.8630232220
H 1.8256931808 0.4723753870 -1.1364056558 -21.7118016216 -15.3040652700 14.9377537245
H 0.1836125154 -0.6412163584 1.2016849375 -0.3023449232 0.1137654750 0.1222079419
H 0.5499094457 1.0835865663 1.0861070670 0.3124229315 -0.2619851524 -0.7884925598
H -0.4573263023 0.2251209060 -2.3363780643 0.3558314832 0.3411440978 0.5051369333
H -1.6242336999 1.4853031747 -1.8051834379 0.3479100510 -0.9651977100 -0.1704099687
H 0.1159693379 1.7882122310 -1.5347836262 -4.1432484166 -0.1636392847 4.5055603449
H -1.8775298858 -1.0133553833 -1.5197690533 0.2174861539 0.4089776633 0.9020192249
H -0.8843975453 -1.7735963449 -0.2520696913 0.6438142625 0.2088651135 -0.3642607765
H -3.5159808876 -1.4717565640 0.0798444829 0.6010472155 -0.2152909233 0.7590031206
H -2.3030773715 -1.4255745687 1.4676970641 -0.2815137332 -0.0524880218 0.1633081362
H -3.6529772510 0.7652452618 -0.1682187136 -0.1772098053 0.0586794745 0.8235480367
H -3.4513863150 0.7370546946 1.6740498706 -0.2194116043 0.1125124701 -0.4532467105
H -1.8283790706 2.2240152986 0.0320317945 0.2480468029 -0.8555039284 0.0982986432
H -1.2730346232 1.4445410332 1.5184841068 0.1109997815 -0.4728160815 -0.6776588433
O 5.4287226217 1.0464641837 -0.6813549176 4.3233973692 3.6741997844 5.8827213656
S 5.0404857515 1.0705848547 -2.1358101761 -0.9726037406 0.5103119248 -2.5232554738
O 4.9344074880 -0.3715203456 -2.5681540499 -0.1311302356 -5.3190063797 -3.1451392896
N 3.5766846784 1.9364122798 -2.4066727018 -1.0637944175 4.6902851979 -3.5125186241
S 2.2763066067 1.2963297166 -1.5234046751 22.6031693633 35.8664799988 -13.7839379225
O 2.2518745676 -0.2013862267 -1.7244808403 11.3117983702 -20.9297191754 -18.4290298202
O 2.3648439597 1.5881350716 -0.0406308166 2.2096120626 8.8309173956 5.4428766421
F 0.8468878824 1.9701655919 -2.1216556749 6.3311833364 12.0893558046 -12.4933390574
F 6.2785620053 1.8057378714 -2.9778110344 2.4431562924 2.0417747716 -1.9936061956
39
energy=-47302.8345200765 config_type=IL_pair name=Pyr14-FSI Properties=species:S:1:pos:R:3:forces:R:3
C 3.4099481043 0.4862745658 0.6160809423 3.0337503242 3.1466835392 1.0430146421
C 2.9729946499 -0.6132402593 -0.2882263184 1.5089125530 -2.3317762106 -0.8200137251
C 1.5145301370 -1.0024462191 -0.1530167042 1.1079340111 -2.2179372720 0.2926074533
C 0.6116931303 0.1401023197 -0.4503837866 3.8948740868 2.2660504250 -0.5883113646
N -0.7909014866 -0.1031420085 -0.3564356259 2.2347598736 3.0340782466 -5.0101039520
C -1.3170551964 -0.9816580025 -1.3827514192 -3.2901209263 -2.4692091468 -2.5649037143
C -1.2520161539 -0.5643950050 0.9144794861 7.8774885328 -4.0240721981 -0.8609224765
C -2.3088263128 0.3557139094 1.4269515019 -3.4779690752 18.9808381626 -2.6035554168
C -2.7205653200 1.1365007711 0.2061234846 -0.3211510561 3.1342676654 -0.9369357830
C -1.4264092338 1.2069632108 -0.5705618481 -0.6475275222 4.2981845709 -0.4201792399
H 3.8670778018 1.3007896727 -0.0154185797 -0.5015708408 -0.4128106232 0.7205237167
H 2.6391601855 0.9599483701 1.2294105259 -0.3915769444 -0.1130372008 0.0607036111
H 4.2431607193 0.2001202267 1.3213498916 -0.9082039040 -0.0576050969 -0.6132060659
H 3.5698322434 -1.5231897341 -0.0023979634 -0.5101915278 0.4825206826 -0.4835057077
H 3.2319244082 -0.4050197934 -1.3481467500 -0.1915975882 0.0881032224 0.3044259801
H 1.3666145105 -1.8448166842 -0.8476835364 -0.3537898898 0.1222729732 0.0780952681
H 1.3552387962 -1.4238551591 0.8616404833 0.2483225628 0.5244029132 -0.4439308612
H 0.8177070664 0.4874129097 -1.4835287715 0.2069288412 0.3908359224 0.1956767276
H 0.8217837833 0.9498867843 0.3011142449 -0.0294055119 -0.3594397964 -0.8522166482
H -1.0771202616 -2.0448937438 -1.1881416928 0.7798827500 0.1573545072 0.3358909302
H -1.0652812869 -0.6623615784 -2.4064966881 0.2678485435 0.1370280911 0.0991362523
H -2.4364846574 -0.9322538528 -1.2434127358 0.9812084140 -0.0258109723 -0.5382408189
H -1.7096404280 -1.5922668671 0.8733705900 6.9262234967 0.7274418887 -11.3585670009
H -0.3689382018 -0.6314560552 1.6115116867 -0.5992281501 0.4641946167 -0.6439243520
H -3.2103423085 -0.1887463538 1.8017609633 -4.4886999448 6.4624270382 -0.4573645962
H -1.9199240221 1.0176535287 2.2210959656 0.3040675254 0.2629238169 -0.3030559126
H -3.4650642749 0.6225606736 -0.4084392342 -0.6484952656 0.0767878927 0.1600737859
H -2.9996676402 2.1842325592 0.4714817764 -0.5191745531 -0.6657751971 -0.4549209428
H -1.5399815348 1.4617277960 -1.6250513311 0.1839370358 -0.2018936147 -0.5924626353
H -0.8134472165 2.0038540185 -0.0862785573 -0.0225581579 -0.5206806262 -0.3872378189
O -2.5905725494 -3.1883227722 0.7249265878 -1.5724787360 -2.5522515197 -5.3502554734
S -2.3864244905 -2.4842735765 2.0476369873 0.8582334225 -13.5168706979 8.0637249307
O -2.3439489686 -0.9981049690 1.7766309927 -11.5139589073 -9.8059001462 20.3799611899
N -0.8923632510 -2.9219390304 2.7687265445 1.3479558946 0.8042820315 5.1647873001
S 0.1456113264 -3.4643534798 1.4850714222 -1.6822299631 -2.6745651916 2.2024897296
O -0.1357291701 -2.7461704272 0.2102465934 -0.4856513106 2.8591757191 -6.2711648733
O -0.1380044428 -4.9398895079 1.3289007070 -0.1482228520 -6.0930361311 -0.3517758832
F 1.7359108490 -3.3373173032 1.9704737380 3.5206022848 1.0192876475 1.2599698124
F -3.6926332357 -2.8380504690 3.0400304909 -2.9848468345 -1.4023610167 2.5488430451
39
energy=-47293.6192728623 config_type=IL_pair name=Pyr14-FSI Properties=species:S:1:pos:R:3:forces:R:3
C 3.9745222890 0.6171476064 0.5233619032 3.0805049470 1.2500967178 1.1304924852
C 2.8681684272 -0.1652426319 -0.1049615960 -0.5232975830 -1.5801085984 -2.3463231741
C 1.4787341446 0.2715205303 0.3873558242 4.3136209010 -8.8951133768 -5.6114862695
C 0.5071420107 -0.6044552690 -0.3344279853 6.3853051871 -2.4773971582 -1.5743842660
N -0.8577398042 -0.4093548103 -0.0620583128 -1.4889986747 -1.1794598799 -1.3557917903
C -1.5925812332 -1.4883591664 -0.7180112781 -2.5873712165 -4.5330832884 -2.9666686150
C -1.3342948108 0.8248439435 -0.6306064847 -1.7912188583 3.8966459913 -4.0944927787
C -2.4354448104 1.3318532265 0.2752805553 11.8355742179 -23.4541122499 2.5029129714
C -2.7216986263 0.0935321243 1.1194381009 -1.5340229185 -0.5160542747 -0.6118080696
C -1.2706964176 -0.3901758323 1.2945585236 -3.2895887721 -0.8338343240 6.1603484904
H 4.6585267513 1.0938936323 -0.2339111815 -0.6901595747 -0.3445152678 0.5986168257
H 4.6239267413 -0.0534482265 1.1302269119 -0.2377470393 0.4059590340 -0.1195386653
H 3.6180061064 1.4192453974 1.1985211460 -0.0697727329 -0.1679455592 -0.2160732145
H 2.9502530314 -0.0271626361 -1.2146209585 -0.3566058119 -0.1684687278 0.5282101370
H 3.0174458988 -1.2464230873 0.0608808577 0.1834977350 -0.1661048082 0.0686178502
H 1.5084768764 0.1934085300 1.4688188091 0.0903531533 -1.4593765638 0.3143886012
H 1.3107046533 1.3316022666 0.1062545435 1.6835062822 -1.5654712910 -2.4063707494
H 0.7489611053 -1.6765325099 -0.1766143771 -0.3217783554 -0.1279539249 0.2108229501
H 0.6665544370 -0.4355293754 -1.4215310439 -0.2979092187 -0.0950619802 0.1510547921
H -2.4121985346 -1.1053203470 -1.3757611099 0.4352585815 -0.2025379450 0.7357696020
H -0.9469248009 -2.0923062546 -1.3957648728 0.1057669684 0.5071330516 0.3839070512
H -2.0175757898 -2.2023787713 0.0189166657 0.1923044569 0.3215471513 -0.2081708355
H -1.8065735588 0.6462844932 -1.6298995402 1.0340485913 -0.3436189600 -0.0891874529
H -0.5243568896 1.5609441017 -0.7545035558 0.0942449083 0.8534976430 -0.0287256849
H -3.3296372449 1.6479229516 -0.2834500118 -6.6442431328 -2.6146845452 -7.4537541158
H -2.0600341182 2.1322932425 0.9649258347 18.6556790173 -11.1277072776 9.5599003715
H -3.2031159567 0.3255967961 2.0716415382 -0.3814057417 -0.0941591564 0.2523159345
H -3.2915488008 -0.5925328966 0.4636781549 -0.4736483458 -0.5947530677 1.2931831593
H -0.8252215763 0.3744621649 1.9410747331 1.0736903713 0.1502227683 -0.2826114619
H -1.3017794996 -1.3753291926 1.7975574729 0.9621228970 -0.0643699788 -0.3905228944
O -2.8063009226 2.4728671218 0.3873300822 -29.7932020400 24.8032100481 -25.2478632046
S -2.5671080338 3.2199580018 1.6491486776 4.7188410678 11.3614340015 14.1650692334
O -3.5346737540 2.7092339791 2.6944862085 -3.6072804065 -1.5325245945 3.8854218589
N -0.9927860823 3.0077222309 2.2822019746 3.8773983510 0.7261226705 6.6138066290
S 0.2353969947 3.0077050226 1.0941048551 -3.4061833998 6.1961460233 6.0750815041
O -0.2696207980 3.2423778061 -0.2905990571 -1.8714800217 1.7434805874 -7.2874607372
O 1.0063618235 1.7118881124 1.1781548043 0.0815313798 4.2199686582 7.8377150097
F 1.3127280846 4.2344241643 1.4871026549 2.0663921718 3.0169195682 0.5155035533
F -2.9655189787 4.8212859634 1.4102600163 -1.5036445358 4.6804014772 -0.6987140544
39
energy=-47320.3269544079 config_type=IL_pair name=Pyr14-FSI Properties=species:S:1:pos:R:3:forces:R:3
C 3.6180268977 -0.5088452175 0.7781370286 0.5093688460 -0.9452900744 -0.7947917307
C 2.2035641406 0.0778876620 0.6444188564 0.8608486500 0.4843062169 0.8954301862
C 1.7937578940 0.1176469331 -0.8154982832 3.1057254514 0.0976946133 -0.9264132396
C 0.4348339892 0.6786067899 -1.0246003194 1.9682600806 3.8244618790 -4.9892322515
N -0.6634790751 0.0167297633 -0.3987664497 -0.9661040283 -1.0702045302 -0.4952228212
C -0.4569144611 -1.3671459773 -0.0602999134 -1.3912502640 -6.2467247898 0.8446368910
C -1.0412993053 0.7278013689 0.8251423273 1.5839615844 1.7792615846 5.8173705169
C -2.5295497483 0.8111108746 0.8792842189 -1.8454263988 0.6724779814 -0.4747554531
C -2.9563437710 -0.1650131555 -0.2216577288 -2.7354790663 1.2116942534 -0.1902507668
C -1.8787019973 0.1320580283 -1.2334758440 -2.1006992376 -0.5566232026 -2.1094580844
H 4.0629640456 -0.5166624822 -0.2494600813 0.2791305888 0.0333632135 0.9191777880
H 4.2303396615 0.1072158520 1.4657792029 -0.0239883605 -0.5448545471 -0.1476168661
H 3.5305916698 -1.5734871492 1.1066469649 0.5322384163 0.6870324082 0.0635791653
H 2.2311948394 1.1153611748 1.0333829686 -0.6461731539 0.0851967644 0.5368361031
H 1.5326674940 -0.4922518027 1.2831871442 -0.4552174911 -0.0832097984 0.1383804484
H 2.5636185924 0.8026116388 -1.3078414764 -1.3128385226 -0.5386626554 0.3060278158
H 1.9547578244 -0.8467205600 -1.3376992686 -0.3682599910 0.0006803540 0.1814108371
H 0.3670970548 1.7560020973 -0.7171716550 0.3396415218 -0.7020749865 -0.1965964481
H 0.2093168484 0.6706307460 -2.1323271446 0.3004830867 0.0072588485 0.7590441748
H 0.4808838423 -1.7956776855 -0.4090114142 0.5567702165 0.2181773607 0.1227136949
H -1.2629448119 -2.0144259314 -0.5292869699 0.9169131829 0.7905936585 0.2321292754
H -0.6225829579 -1.5179569700 1.0376081686 0.7485505806 -0.0148737696 -0.8249088405
H -0.7190692589 0.1245208395 1.7204880329 0.3524166688 0.8378870534 -0.9530767204
H -0.5180767080 1.7040282382 0.8818346314 -0.6255370214 -0.3023858545 0.0574174169
H -2.9647882160 0.5432693916 1.8503000117 -0.0749989521 0.5910095082 0.4694812762
H -2.8464528591 1.8192309578 0.5378905259 -0.1322051863 -0.2286677739 0.6903150097
H -3.9469521254 0.1987346779 -0.5818174701 0.3482008878 -0.8600306928 -0.1028792538
H -2.9920677485 -1.1994159262 0.1098360144 -0.2035491216 -0.4591861693 -0.0454475217
H -1.9717007121 1.1850901661 -1.5395493980 0.1262183670 -0.0190098150 -0.4844825650
H -1.8426910381 -0.5909343428 -2.0661840467 0.2505686254 0.3392094342 -0.3241743061
O -2.6734112721 4.2246617439 3.5027331047 -3.0234397971 6.8142899392 -1.9836016366
S -2.2587385652 2.8061144437 3.6904638956 1.7235564324 -0.7134879476 -0.9010013158
O -1.7925210643 2.6390233694 5.1052327693 1.8973484307 -2.0241055645 6.4987646933
N -1.0458796465 2.3238578193 2.5474037613 -1.3322717759 -2.3113765122 -1.7684799223
S 0.4948754726 2.9900958038 2.9254259845 -1.7553840191 -0.5999740790 0.0688631860
O 1.5607591167 1.9664427957 2.5984355919 4.1385163976 -4.9490139027 -0.5378055467
O 0.7771587031 4.1734180755 2.0468807298 0.6594494139 6.2133991016 -3.2040804676
F 0.6701467216 3.3195833616 4.5404591796 0.2368318584 0.9189671315 3.8577204569
F -3.5639230926 1.7660013207 3.4588090152 -2.4452775175 -2.4254009078 -1.0045477531
39
energy=-47312.1556625478 config_type=IL_pair name=Pyr14-FSI Properties=species:S:1:pos:R:3:forces:R:3
C 4.1008156345 0.1858438911 0.1228776412 3.3169501992 -0.9329855036 -0.5610619936
C 2.7932501898 -0.5110623576 -0.0919612593 -0.9069778324 -0.2910430673 0.0554597225
C 1.5980164720 0.4017559513 0.1579177077 -0.0023936276 0.5078723253 0.5530863887
C 0.3958176704 -0.4685125110 -0.1058039853 4.8768232170 -3.1649847879 -0.7780214926
N -0.8700386066 0.1512491954 0.0588617564 -1.3234608263 -0.2609146715 1.4360975083
C -0.9159595229 1.1894878688 1.0438541571 -1.0958820433 3.9221410069 4.8731290738
C -1.8122745745 -0.8736576275 0.4929465404 -2.4766796870 -4.5818960932 2.4466649730
C -3.0545610240 -0.7080141782 -0.3310844926 -1.8592962933 -0.6554140577 0.4878817160
C -2.4687684795 -0.2643483573 -1.6455686723 -2.2439566994 -3.9453634400 -1.3151145865
C -1.3845230674 0.6639752112 -1.1962034901 -5.7790840613 -4.8606749939 -3.2533912516
H 4.4116174823 0.7056147745 -0.8084075575 -0.2322657765 0.4047249537 0.6173273946
H 4.8811059596 -0.6147619774 0.2751935063 -0.4774041064 0.7337804410 -0.1387236314
H 4.1603297959 0.8143690238 1.0128967624 -0.3048910625 0.5035101358 0.0563348657
H 2.7249791300 -0.8205071081 -1.1572781893 0.1780032766 -0.5784357304 0.5381552763
H 2.7074206603 -1.3478625966 0.6246615494 0.0903392753 -0.4111707841 -0.5483302177
H 1.6076822650 1.2849005059 -0.5133899405 0.0891818792 1.1181041413 -0.6747834117
H 1.5376382574 0.7396865263 1.1954260013 0.4860030171 0.0959365794 0.2854613262
H 0.4673300700 -1.3316881787 0.6091199361 -0.1967004413 0.3449900853 -0.7373517730
H 0.4682400241 -0.7998933115 -1.1735032848 -0.3445856189 -0.4099775351 0.8172484863
H -0.5355108145 0.8224497531 2.0258836422 0.2991778348 0.2158626264 -0.5578446057
H -1.9999096900 1.4228443164 1.2466552288 0.8322311760 -0.0367869406 -0.4470072031
H -0.4215553311 2.1382536911 0.7189314048 0.0281834407 -0.7972650593 -0.0276604901
H -1.4053746470 -1.8930541603 0.2999110663 0.1204448681 0.5891594785 0.0210911635
H -2.0420648099 -0.8159918735 1.5750542618 0.5399683962 0.1456139334 -0.0663666300
H -3.6417310770 0.1186536700 0.1053651681 -0.4921246851 -0.3774050740 -0.1112353935
H -3.6108342236 -1.6669695469 -0.3882131913 -0.1584703365 0.5490415558 0.2882158600
H -2.0635429168 -1.1474653081 -2.2057658870 -0.3489753309 0.4968657440 0.2870088503
H -3.2137536671 0.2270173803 -2.2879781884 -0.0989335483 -0.2478999291 0.4937720328
H -1.8267732124 1.6711298985 -1.0488979854 -4.7297373563 -2.0869597146 1.3977248806
H -0.5870679469 0.7265574349 -1.9686710223 -0.4792001414 -7.5719707893 0.6957876950
O -1.9450386479 1.1698098585 -3.1842362416 -5.3025542886 -3.4780959182 -4.4414218495
S -0.8421933794 2.1146068546 -2.8782015045 3.1324122630 6.4350641163 -7.5789052660
O -1.2199402084 3.5566796888 -3.0998168849 -1.6210766691 5.8257551476 0.1264419120
N 0.5748461815 1.8416516923 -3.8108802118 0.6941599949 -3.5548289219 -2.9294485001
S 1.8993727979 2.5004660507 -2.8953334218 -0.5408782589 -0.2002067882 -1.9731842083
O 1.5386348408 2.6610745381 -1.4401677420 -0.3178535570 0.0818289428 6.9726391263
O 2.2578388369 3.8363744196 -3.4815432780 2.2889626375 5.1722026246 -3.0288067187
F 3.2354840951 1.4965434158 -2.9464339366 2.5486857803 -2.4474455753 -0.3109217026
F -0.4809877926 1.9520183002 -1.2480702119 11.8095762151 13.7459946005 7.0250233050
39
energy=-47313.6918210761 config_type=IL_pair name=Pyr14-FSI Properties=species:S:1:pos:R:3:forces:R:3
C 3.9077775101 0.5021311545 0.0877357947 1.2676905622 1.2877691968 0.4611734400
C 2.8463377052 -0.6009436861 0.0609434701 1.0991485893 -0.2078220728 0.6088712191
C 1.4902498231 0.0432608386 -0.0774456390 0.5774746059 1.5276845675 -0.6109496408
C 0.3613303955 -0.9540260006 -0.1147732820 3.3663598569 -2.7240039153 -1.1548660894
N -0.8710212529 -0.2009751294 -0.2490690856 0.7169978713 -0.8075128957 -0.2867451778
C -0.8285369858 0.4325983609 -1.5377026428 1.3487994495 5.2648567471 -4.6152841318
C -2.0475561124 -1.0443266621 -0.2233065637 -4.1767930682 6.2779469115 5.2614204730
C -3.1177124337 -0.0408437603 0.1461244187 -1.6573177125 0.4958490018 1.7110147371
C -2.4428204430 0.6554592979 1.3255082370 -1.8394520240 1.3494353755 0.5302852027
C -0.9999408412 0.6879538782 0.8661849430 1.0745838425 3.1749702572 5.9631463716
H 3.4768345026 1.4201799173 0.5569547296 0.5367219421 -0.5230777679 -0.0472211027
H 4.2468436087 0.7919845706 -0.9198525875 -0.1698365712 -0.0959063983 -0.0558367690
H 4.8189417482 0.1821342420 0.6516895508 -0.6141782193 0.2523482367 -0.2513365181
H 2.8848680678 -1.0993006632 1.0421832136 0.0847988232 -0.7011678011 -0.2927294383
H 3.0763785659 -1.2534365835 -0.7925818843 -0.2225751970 -0.6236858152 0.2859427873
H 1.5077124104 0.6119172411 -1.0380862229 -0.1877011055 -0.0657864533 0.7481775250
H 1.3268016653 0.7340027886 0.7717043182 0.3591819138 -0.0306821329 -0.4305091058
H 0.3782836850 -1.6215222512 0.7467145539 -0.4573299129 -0.1323215207 0.6777187726
H 0.5210552185 -1.5877784998 -1.0264697865 -0.5164278034 -0.0137217583 0.4814055910
H -0.3993759717 1.4414059976 -1.5316995454 0.2644146537 0.6234569109 1.0512390269
H -1.8502229532 0.4873989118 -2.0094847100 1.0911953537 0.9731113644 0.8098288646
H -0.2268228133 -0.2128838095 -2.2426924596 -0.3441368803 1.7495893246 0.7917211140
H -2.2530133817 -1.5663674449 -1.1543423892 -2.1633068431 4.9570238589 2.6644586036
H -1.9361961777 -1.6970293828 0.6765259977 -0.0010823441 0.3288434516 -0.3365423486
H -4.0398126496 -0.5211222107 0.5280190886 0.0487519190 0.0769975676 -0.7774224104
H -3.3124068270 0.7221041364 -0.6063795052 -0.4743915839 -0.1781366580 -0.6696478062
H -2.6004175053 0.0318037925 2.2229585119 0.2964073809 0.4404867978 0.0987777720
H -2.8504017971 1.6787177124 1.4585054344 0.2050459836 -0.3432313263 0.4528456611
H -0.4117871648 0.2645675563 1.7301673339 -0.0273629927 0.5927083850 -0.9232176058
H -0.6553695960 1.7129356874 0.6519667075 0.1419233102 -0.1118129360 -0.1722821349
O -4.3543044379 -1.2008934458 -3.5273070566 0.0095888875 6.4609717471 0.6329216659
S -4.2813795838 -2.6956420285 -3.3098804006 0.9157254520 0.4072247568 0.1297560700
O -5.0903907063 -3.3279048764 -4.4129276035 -3.2627583274 -4.0115602196 -4.1368588273
N -2.6849900747 -3.2968283027 -3.4380517963 2.1313640877 -4.1681787160 -2.4495490506
S -1.6105996038 -2.5441224728 -2.3344141953 -1.2221808027 -7.3497264474 -7.1061919360
O -1.6085321306 -1.0505650553 -2.5716843884 -0.6638862409 1.8129133387 -4.3506118012
O -2.0578301281 -2.7268202425 -0.9011705798 -0.2142113788 -13.9275545330 2.6365202223
F -0.0668436011 -3.0967610152 -2.5852198973 3.8579503649 -1.1365751034 -0.5159917751
F -5.0190589637 -3.1254596376 -1.8666813457 -1.1760633573 -0.8965781991 3.1869515969
39
energy=-47301.7673026831 config_type=IL_pair name=Pyr14-FSI Properties=species:S:1:pos:R:3:forces:R:3
C 3.4076899206 0.4630823190 0.3678577403 2.3286916255 1.6466307860 2.8842642176
C 2.8144745379 0.0048329649 -0.9201849913 1.4593039827 -1.0923780525 4.8578899678
C 1.4848314569 -0.7025783913 -0.7377106483 0.4582940006 -3.0647139697 0.6241973784
C 0.5385005764 0.2805522814 -0.0834717612 0.4916406714 -1.8458403347 9.1870843448
N -0.7710275935 -0.2752245439 0.1460427661 0.2195847816 -1.1709441686 2.6242250545
C -0.7556410679 -1.4587406663 0.9557500669 -1.5464319361 -5.9784418683 2.4278349945
C -1.4807151643 -0.5553660070 -1.0754955779 -1.2963989112 -3.4187290146 -5.0045420695
C -2.7209984830 0.2754681066 -1.1038109962 -2.1675440711 0.6914129918 -1.4463522045
C -2.3885966227 1.4034048802 -0.1650596312 -1.6154824981 2.8388523092 0.5220582823
C -1.5454669858 0.7136917872 0.8692069414 -2.0860678295 3.1376173605 3.8364109707
H 2.8757175204 1.3257248218 0.8408307209 0.1617643152 -0.6073970727 -0.1184869289
H 4.4263075814 0.8436246165 0.1465552459 -0.1267965135 0.0262000861 0.1544423331
H 3.5546649496 -0.3550208720 1.1033093099 -0.3109551191 0.2154762365 -0.0860903922
H 3.5551699268 -0.6466512205 -1.4188230496 3.1551359484 -6.9356060261 4.7225535321
H 2.6972595465 0.9041296986 -1.5641770783 -1.1784349282 6.8420857178 7.6277281880
H 1.6632077030 -1.5966715671 -0.1057466415 0.2635188347 -0.4835728150 0.2609026735
H 1.1079152870 -1.0522838659 -1.7167913558 0.0705243593 -0.9475938119 0.6841563487
H 0.4240835306 1.1352941230 -0.7824358853 -2.8778356665 3.2596069169 3.7273242509
H 0.9550719546 0.6382990983 0.8637841351 -0.1874306243 -0.7474868744 0.9635649960
H -0.4881083553 -1.2996789780 2.0146485193 0.6173610776 0.3560008231 -0.3156692194
H -1.8081550092 -1.8388822811 0.9782506233 0.4468551841 0.0264728625 0.2113199975
H -0.1698213074 -2.2929158697 0.4880376014 0.0195033936 0.9128989826 0.4202128781
H -0.8030630506 -0.3623290995 -1.9357065894 0.1702138361 0.5716337818 0.2605164920
H -1.8036895070 -1.6228216551 -1.1581045020 0.7529545842 0.3676936186 0.2999551480
H -3.6157292528 -0.2633654832 -0.7248446343 0.3498271953 -0.0297750751 -0.2911831544
H -2.9061351585 0.6160950744 -2.1409146075 -0.2730134301 -0.0513259485 0.2820903318
H -1.8401751335 2.2339624722 -0.6573168710 -0.1539743465 -0.2936367587 0.0867919319
H -3.2963826945 1.8182116307 0.3525383614 0.6616003721 -0.0555361911 -0.6648923303
H -0.8916070058 1.4284638730 1.4116085677 0.0213637228 -0.4247742049 -0.1357929442
H -2.2195821001 0.2376927527 1.6296932866 0.5381996469 0.0050199412 -0.5367945333
O 1.2335939265 0.5832248948 -4.0319126584 -3.0714004069 -1.7108982922 -6.2526709397
S 1.9268669896 0.9976831573 -2.7770699015 -1.0432312080 8.3062472062 -10.1294584840
O 0.9319260262 0.8839656123 -1.6454712379 -4.7486709183 3.9446143116 -9.1540563511
N 3.2183330804 -0.0674421716 -2.4433702678 4.9074692902 -10.7473551650 -9.2013647807
S 4.7463266355 0.5297756626 -2.9499067750 0.8899260077 -0.7279529604 -1.1211258812
O 4.7592421644 0.8562329039 -4.4272918312 -0.9360963999 2.7066457659 -5.7336532703
O 5.7418623080 -0.5972818005 -2.7879076351 4.3036012853 -4.3002098565 2.4441346260
F 5.2030353096 1.8982197913 -2.1196223523 0.6292507381 3.0447436524 2.3181875035
F 2.4626608908 2.5924962799 -2.8401063861 0.7009305773 5.7322867917 -1.2371668578
39
energy=-47316.3752044159 config_type=IL_pair name=Pyr14-FSI Properties=species:S:1:pos:R:3:forces:R:3
C 3.9395875430 0.8231155121 -0.7554643495 1.4644381147 0.6806265154 0.0682346459
C 2.8992524286 -0.1374208353 -0.2125208089 0.4781794936 -0.4103512836 1.4079063262
C 1.4897881299 0.4423156384 -0.3551757547 1.4479259002 0.0881607460 1.5723790547
C 0.5740625666 -0.6176833204 0.2222610830 5.8262249875 -1.8658627652 1.0166986312
N -0.8107586797 -0.2779085816 0.1893125143 -0.6757825676 -0.6924492669 0.1549142821
C -1.4124859719 -0.3071156070 1.5040525741 -1.7424367853 -1.0881077771 5.3661780345
C -1.4922904203 -1.2693489523 -0.6562643127 -1.0945671591 -3.1632918075 -0.9177085947
C -2.8007446668 -0.6222161289 -1.0478780223 -1.6745469573 -1.0137186665 -1.0706554173
C -2.6727733315 0.7858435922 -0.5279174267 -0.6468177911 2.2906235877 0.4869702139
C -1.1459240328 0.9396619639 -0.4799684675 -6.4434237350 5.2599629743 4.1037301695
H 3.9519145098 1.7322967201 -0.1319258477 0.4170525016 -0.0724017425 0.1015679859
H 3.7430938214 1.1234810020 -1.8011265114 0.0135169412 0.0280634988 0.8857056177
H 4.8978381470 0.2581989786 -0.7320222603 -0.0668422277 0.8742932090 -0.0802103181
H 2.9740526758 -1.1245898282 -0.7006745283 -0.0607959673 0.3134539322 0.0576806703
H 3.1517822863 -0.2903320124 0.8546741021 -0.2104089332 -0.0117714536 0.1858418142
H 1.2784000475 0.6735208475 -1.4153471132 0.7886021043 0.1306860084 3.1500728482
H 1.3712473553 1.3384714402 0.2586782314 0.1988088831 0.4255608586 0.1472982065
H 0.7912716667 -1.5943407615 -0.2966393968 -0.5371012644 0.6915970673 0.5124505858
H 0.8729628399 -0.7280777659 1.2906136778 -0.1282925274 -0.2826931976 -0.5098300804
H -0.7643164876 -0.8716360501 2.2253872358 -0.3986696154 0.4183371074 -0.5292080483
H -2.3843138213 -0.8468517128 1.4710091851 0.3636842283 0.3853781726 0.1133413458
H -1.5870699203 0.7128631093 1.9013770640 0.3001026752 -0.2712554333 -0.1225890644
H -1.6535417971 -2.1563309734 -0.0138972934 0.4105435883 -0.3008150915 -0.6334084300
H -0.8536564381 -1.4528966154 -1.5261839532 0.2931123019 -0.4255344975 -0.4168027009
H -3.6097641608 -1.1998591992 -0.5995305572 -0.6559799445 0.0258010080 -0.0784611269
H -2.9065435161 -0.6329386453 -2.1441202580 -0.1502747204 -0.0761952462 0.0589840184
H -3.1369257017 1.5534122026 -1.1739379979 0.0145997924 -0.2140408763 0.0993171133
H -3.0588145856 0.9073964468 0.5020086915 -0.6445820415 0.0057793293 -0.5748101620
H -0.9073558400 1.8669903984 0.0757355728 0.4824110715 -0.6631313044 0.2068600171
H -0.7379746461 0.9719791378 -1.5027625037 -3.9135837781 -0.2835193820 2.5609704380
O 0.2194123907 -1.0404619307 -3.7740521528 -4.8770434475 -5.7999847893 -0.6274346180
S 0.9456670036 0.1770651386 -3.2816843327 4.5714000660 -3.1911572106 -3.7647787961
O 1.2342707347 1.0406201886 -4.4582612656 1.0158295285 5.8501768852 -5.5866574248
N 2.4217865384 -0.2984002594 -2.5622649119 -0.7751664777 -0.6921318281 2.9982470504
S 3.7515190762 -0.2933851962 -3.6374031334 -0.9933274844 -0.5361539084 -1.0700034846
O 4.9643371780 -0.7100636064 -2.8370020277 5.0476234803 -0.5712822347 3.8358810298
O 3.5543505473 -1.3460911011 -4.6989461533 -1.4082553970 -3.5590757857 -5.2353990966
F 3.9816694308 1.1833322155 -4.3721831731 0.4480850992 3.4509025768 -1.2962782408
F 0.0591937547 0.9910076390 -2.1086549101 3.5154144507 4.2634020290 -6.5796892246
39
energy=-47318.2288973273 config_type=IL_pair name=Pyr14-FSI Properties=species:S:1:pos:R:3:forces:R:3
C 4.0438107287 0.1946449732 0.6406536282 1.4104317718 -0.4364882833 0.3276017674
C 2.8112906000 0.8273835459 0.0127717811 0.6368468363 1.4612139673 -0.2895250668
C 1.6117491682 -0.0857448784 0.1823107147 0.1504986611 -0.8151093357 0.6766342141
C 0.4281528296 0.5904037885 -0.4556178605 2.9743386094 2.8891508281 -0.4916293453
N -0.7968865582 -0.1507283560 -0.3801185834 -0.1143709818 1.2949466060 -0.0682165904
C -0.7424189940 -1.2982422500 -1.2437237318 -1.8306280126 -3.8722510780 -4.6800555479
C -1.8215455702 0.7599528505 -0.9142481214 -1.8908784803 3.1632426482 -2.6622918070
C -3.0897247054 0.4189815383 -0.2066049961 -3.9274677834 1.4752640262 -0.7710376211
C -2.7141786093 -0.6308777453 0.7938039011 -1.6933979378 0.3032695074 2.1581537214
C -1.2309633321 -0.4667636930 0.9498431798 -0.9619199849 7.9362718470 4.4816172579
H 4.6792157608 -0.2577865550 -0.1490762432 -0.2508433077 -0.1273429039 0.4121740576
H 3.6841080140 -0.5904625349 1.3277306744 0.6939641707 0.1025623243 0.1693031971
H 4.6820388370 0.9362096961 1.1674995722 -0.3767575743 -0.3682240791 0.0008010847
H 3.0332721890 1.0284863065 -1.0412702759 -0.3003745985 0.0145025633 -0.3818793912
H 2.5979218249 1.8116960651 0.4696291989 -0.0596372617 -0.1515162318 0.0666570409
H 1.8063927353 -1.0727009197 -0.2637819838 0.0523540165 -0.0338728811 -0.0267570549
H 1.4145952951 -0.2289735994 1.2631449338 0.0345640839 -0.0617270793 -0.2396673212
H 0.2433301448 1.5638828266 0.0400889739 0.1747937913 -0.2025960503 0.0852486017
H 0.6057882247 0.8187562313 -1.5207026589 0.1933626732 -0.1087881030 -0.0973967490
H -1.5782303193 -2.0100572786 -1.0094309493 0.8166994489 0.6840995510 0.0150503381
H -0.9579363822 -0.9249450471 -2.2855900187 0.7924552183 -0.4728348459 0.6768634945
H 0.1918614254 -1.8574039768 -1.2319715381 0.4546681484 -0.0413084287 0.3182398975
H -1.5614641079 1.8137914796 -0.6960132751 0.3521254987 -0.2956535894 -0.1789847601
H -1.8838230994 0.6078077944 -2.0059585925 0.0270740354 0.4319425305 0.0555674909
H -3.5278760376 1.3294529815 0.2963933580 0.4965449151 -0.7731443409 -0.4994880866
H -3.8588348191 0.0715739222 -0.9321181106 0.2162427004 0.0751468179 0.3412538435
H -2.9953707640 -1.6478934457 0.5046055619 -0.4300727830 -0.1126203432 -0.0231407135
H -3.2554354196 -0.4102130766 1.7342008990 0.2991377706 -0.3924414153 -0.0279090354
H -0.9760791117 0.2989151977 1.6781922163 -0.0467819421 1.5719840095 -0.4824672916
H -0.8427599475 -1.4391458408 1.3093373337 2.5624403881 2.7324272276 2.7053510356
O -4.9464013933 -5.2230715499 1.6263182311 -3.3242585629 -4.8572450672 -0.2110193555
S -3.9085473367 -4.1321468407 1.7774883196 -0.4640811391 -0.0710947724 -0.8572386452
O -4.5771531281 -2.7902578844 1.5659577099 -1.7093414699 5.8485439841 -0.3174266446
N -2.6931727067 -4.4281040407 0.6119039325 0.9126589833 -2.1599310667 -2.5126832450
S -1.1511797657 -3.8230559383 1.0464645197 -1.8501655464 -6.7807258647 -0.0620348730
O -0.1584149691 -4.4397711654 0.0875877001 3.9882124765 -2.6337695173 -3.0901788873
O -1.1454755652 -2.3321835193 0.9188420934 -0.6160589480 -4.4703783812 -1.4223957416
F -0.7516240322 -4.1941486772 2.6252039135 0.8115221901 -0.6179117062 3.2460032631
F -3.3537014206 -4.2118571966 3.3448532502 1.7887687683 -0.1389292689 3.6524381224
39
energy=-47270.2876770841 config_type=IL_pair name=Pyr14-FSI Properties=species:S:1:pos:R:3:forces:R:3
C 3.2452205953 -0.4227528575 -0.0556287413 1.3267976192 -2.4341613614 -2.3608029971
C 2.4471327124 0.8404237850 -0.3176321548 1.6378126967 0.3848137932 -4.1678577800
C 1.3968897406 1.1026460839 0.6850705186 4.5427351477 -25.4208302488 -25.2186964886
C 0.3203211940 0.1265281521 0.8790967952 0.9952244660 -0.5103577102 1.8532587855
N -0.5588182544 -0.1943315258 -0.1750830648 -2.8938006770 -2.4082256312 -4.1701993040
C -0.0382001656 -0.4983123660 -1.4584083979 -0.4729024632 -1.5195775931 -7.2367157123
C -1.5530235363 0.8486840948 -0.3818753304 -0.9071399824 4.8617239837 -1.5700491981
C -2.6426218888 0.6209128104 0.6087559572 -1.6442341671 0.5721976824 0.1532471530
C -2.6886989361 -0.8960447290 0.6602118056 -2.7319304264 -0.6919864206 1.1627594150
C -1.3303846101 -1.3635134512 0.2792586440 -0.3690337769 -5.0194048413 0.8132346147
H 3.8453181213 -0.5954460151 -0.9806156053 -0.1273956426 -0.6047732603 0.5118405306
H 3.9510013024 -0.2402923409 0.7606377077 -0.0586298765 -0.6569019908 -0.0503243228
H 2.5872852169 -1.3106759643 0.1404354993 0.7037478458 0.5529507954 -0.0656125111
H 3.2204333151 1.6606812407 -0.1912520326 -1.2808876151 -0.6533192485 -2.4947160381
H 2.1394039519 0.9380815284 -1.3752903774 -0.6928006807 -0.9691439360 -0.5945090796
H 0.9655530076 2.1074897856 0.5112880856 3.0550143763 -2.7934315721 -13.4877150390
H 1.9213833971 1.2116031927 1.6830546972 36.9066226265 -54.8471834346 -45.3481634297
H 0.6674724505 -0.8421493342 1.3363497313 -0.8420441988 -1.8098586218 -3.0164178973
H -0.3395304501 0.5419392514 1.7039744950 -4.1944587956 -0.1606828555 -4.1309670189
H -0.8208651781 -1.1556988925 -1.9584176989 0.9168522389 0.7386253360 0.1814539992
H -0.0542549663 0.4148515914 -2.1091755247 1.0831324168 -0.5552715011 0.6447319440
H 0.8685437763 -1.0922450404 -1.5165104206 0.9157495332 0.2064526128 0.5556393529
H -1.0066538436 1.8114531498 -0.2501223304 -0.2850746044 -0.1713331494 0.0681196534
H -1.9608748593 0.8540751938 -1.4096190864 0.1723746961 -0.4315253381 0.0520000645
H -3.6118611267 0.9567096222 0.1909072250 0.2922091546 0.6213117294 0.6433145372
H -2.3790521417 1.0554309690 1.5830392573 -0.4542070858 0.1731086236 0.0374244115
H -2.9488539384 -1.1665830608 1.7067269937 -0.2033741424 -0.5742282122 -0.6731257645
H -3.4152003450 -1.2949467300 -0.0822296483 -0.0864586390 0.1816417085 0.7184137427
H -0.8643537935 -1.8588260947 1.1519662583 0.5026220625 0.4322911347 -0.2114968380
H -1.3627107473 -2.1596920489 -0.5067043078 -0.0037689880 0.6560633085 0.3557987160
O 4.5969019026 3.3932243670 2.0573921253 1.3681979399 7.1310650359 -2.2390490362
S 4.3795009048 1.9349136898 2.2835436215 2.1966591766 0.5877470844 -0.2049130002
O 4.3141934750 1.7042090902 3.7541353851 -0.3816513631 -2.6220939013 7.4567290675
N 3.0256482020 1.3744143680 1.4247855593 10.5248270865 1.1097027700 5.0252300658
S 1.5229466634 1.7210416772 2.1343975965 -34.0797488805 56.9446787721 59.9130843465
O 0.6628713422 2.5135191834 1.1952131881 -21.0295832871 32.0280668824 15.1018371097
O 1.5939562700 2.4031680547 3.4532505916 -0.6262885904 2.9747914538 6.0337019912
F 0.7206527966 0.2647892889 2.4006619564 3.5943800968 -3.1809931841 17.4934298454
F 5.7411895390 1.1384739653 1.7240700248 2.6286795801 -2.1221482594 -1.5380413462
39
energy=-47319.8402807949 config_type=IL_pair name=Pyr14-FSI Properties=species:S:1:pos:R:3:forces:R:3
C 3.4329357599 0.1658222077 0.5298539869 2.0208796164 -1.3693288890 0.8971178722
C 2.6233935355 -1.0320338847 0.1182509347 0.6916871418 -2.4902889555 0.7352000209
C 1.3213602981 -0.6586565206 -0.5621921970 0.9006639966 -2.3816058409 -3.2927730935
C 0.4991659285 0.1457712105 0.3646939121 5.3435151160 0.2819445722 3.1087089165
N -0.7703437498 0.5833943436 -0.1232044070 -0.3429311345 1.9427983189 0.3093793626
C -0.7476459374 1.9485377508 -0.6258350362 -1.7122280396 4.4215671647 -1.1642709725
C -1.6967433877 0.5490886150 0.9977700509 -2.3077737721 0.7008333653 6.3012714612
C -2.7126907193 -0.5168966883 0.7116508897 -2.2274423370 -0.4815162047 -0.8567185530
C -1.9751602541 -1.3534210396 -0.3199980198 0.0274488732 -2.0714814758 0.7842718052
C -1.3736497023 -0.2330992613 -1.1260543963 -3.0095912846 -2.4945429714 -3.6533704491
H 2.9153019822 0.6754375102 1.3472215337 0.4261931799 0.4924730205 0.1637835170
H 3.5684451396 0.7980701406 -0.3894576161 -0.1065017337 0.0056470115 1.7396202035
H 4.4243045009 -0.2536974231 0.8641654661 -0.7918990583 0.8490027957 0.1249720834
H 3.2634802437 -1.6666967587 -0.5468773605 -0.6668198185 0.4106307856 0.0324400021
H 2.3894902776 -1.6808775739 0.9938715745 0.0871934785 0.1554163437 -0.1296803036
H 1.6355638021 -0.0563848711 -1.4631226604 -0.6877996534 0.0027570073 1.0449626712
H 0.8714272743 -1.5969225353 -0.9068226293 -0.6367980722 -0.1684637696 0.2618918134
H 0.4342303014 -0.3578223309 1.3520768582 -0.4994119131 -0.1134608086 -0.4687050936
H 1.0788209208 1.0955080664 0.5642110104 -0.2898528743 -0.8849312893 -0.3916107871
H -1.8330470081 2.2560601971 -0.6279010071 0.9757864277 0.0154366620 -0.4463259840
H -0.3532607168 2.0300722875 -1.6569579178 0.8390573001 -0.2800250866 -0.3312122875
H -0.2488688734 2.6240550748 0.0840819917 0.4329548154 -0.0986708581 -0.0717161782
H -2.1601175892 1.5301533151 1.2047399491 0.1371908575 0.0098713270 -0.3228118941
H -1.1956735659 0.2577362039 1.9614437903 0.1136966512 0.5362716090 -0.9409993673
H -3.0320999223 -1.1076757309 1.5827347664 -0.2208318513 0.3804580988 0.0729144063
H -3.5407789101 -0.0342728154 0.1583883860 -0.5060035483 -0.3828561717 0.7332230867
H -2.6458838517 -1.9996811702 -0.9059028270 0.2462564693 -0.1876973962 0.0300163716
H -1.2027006946 -1.9179642878 0.2569599930 -0.2779615563 -0.2179841880 -1.0004509327
H -0.7459684677 -0.5375181557 -1.9420767145 1.2441417781 -0.0277766296 -0.6589901661
H -2.2232866141 0.3439141241 -1.5488134740 0.3517345462 -0.0669344405 -0.1270037942
O 1.2054657364 1.7614302571 -3.2880224565 -5.3313647526 -0.9971912219 -3.6155128465
S 2.3558509498 2.2032030521 -2.4100771792 2.5698830266 1.8734577210 -3.9616534174
O 2.2255068503 1.4804978697 -1.1198424868 -0.3772524068 -1.2753122538 6.9464740679
N 3.8108645421 1.9173059219 -3.2456413213 -0.5364808160 2.0524330596 -3.4448806473
S 5.0743354715 1.2727553433 -2.3090826315 0.2513357377 0.0229822804 -1.0845836790
O 5.1220852893 -0.2336697402 -2.3970534170 -0.9164918487 -6.3627821328 0.5527426423
O 6.3917352936 1.7691547886 -2.8645369917 4.9257749887 3.2027507316 -1.7086994038
F 4.9815324961 1.6926769089 -0.6915390162 0.0842087728 1.9404158225 3.2007838640
F 2.1455385661 3.8614579056 -2.1930535520 -0.2248201391 3.0591004698 0.6406184411
39
energy=-47319.8848212465 config_type=IL_pair name=Pyr14-FSI Properties=species:S:1:pos:R:3:forces:R:3
C 4.0321099893 0.4967203438 0.0796859128 1.0143248586 1.3007088147 -0.7914889636
C 2.8032859388 -0.2593745146 0.4551216173 -1.0809862614 -3.2802307193 0.6727541852
C 1.5384418572 0.2622015261 -0.2389206433 1.2607061018 2.0823378394 0.5633824153
C 0.4312848265 -0.6103794869 0.2583266891 4.4715652429 -2.5277738829 0.2575108353
N -0.8653548345 -0.2914290944 -0.2736299074 0.9593712086 -2.1577829189 -1.3840559488
C -0.9358088909 -0.8727940471 -1.6211435930 0.5405667281 -2.2699504298 -4.3499453809
C -1.1744757888 1.0994322007 -0.3499397610 -1.9569504366 5.5723413167 -1.3423846493
C -2.7071978534 1.0695166442 -0.3211500578 -1.0011461511 -0.6372309922 0.0519927856
C -2.9092297821 0.1237949804 0.8560780416 -2.1302846691 -1.5611474990 -1.1578287101
C -1.8504219489 -0.9129882550 0.5918303550 -4.4452340023 -3.7479765626 2.7896928290
H 4.4735235627 0.0007529379 -0.8098712157 0.3140967294 0.5018162570 0.4146838335
H 3.7141659725 1.5247938174 -0.2026226929 0.6898764066 -0.2394324173 0.1883357928
H 4.7270513702 0.5307701035 0.9322184739 0.3177351811 0.0781940291 -0.3600342498
H 2.6100105967 -0.3262576966 1.5466658912 0.2329633463 0.4656282121 -0.2318601618
H 2.9214394309 -1.3350501423 0.1357970857 0.0208267417 0.7460560964 0.3447413976
H 1.4332069113 1.3238043008 0.1147475225 -0.3080840699 -0.7170418342 -0.5189978154
H 1.7107070481 0.2599572275 -1.3140627185 -0.2027266914 0.0237264188 -0.6368313499
H 0.6779438511 -1.6544949492 0.0045999771 -0.3994214562 -0.1037001138 -0.0787030921
H 0.4037616949 -0.4880630064 1.3645713987 -0.3462556325 0.1930660662 -0.0082578588
H 0.0950057266 -1.0219613029 -2.0341767803 -0.5717389572 0.4666359605 0.3129627469
H -1.4848697274 -0.2254173720 -2.3324178474 -0.1280087424 -0.2615487355 0.3380732141
H -1.3754918404 -1.8988249603 -1.5955196337 -0.0294607102 0.6995282626 0.0840049971
H -0.8153599807 1.6412687122 0.5354347430 0.2925312451 -0.0018776624 0.1248783229
H -0.8862442641 1.5672154328 -1.3134795101 0.9275353439 -0.2374976461 0.4913706231
H -3.1551862180 2.0467457117 -0.1453433150 -0.1180551214 0.4427473786 -0.2316572578
H -3.0849789091 0.5515325130 -1.2258893950 -0.0813123243 0.9083399134 -0.2078696409
H -3.9332783252 -0.2860347185 0.9105369846 0.3205011533 -0.1082568707 -0.1219533879
H -2.6378294655 0.7152648347 1.7642841553 -0.1596883625 0.6936528723 -0.2413874858
H -2.3328538414 -1.7905006747 0.0922686558 0.8692104772 0.1766295016 0.1771788681
H -1.4233571063 -1.2402010658 1.5611283575 0.4356825756 -0.0926324296 -0.4875875811
O -3.8149747861 3.0932455785 4.1962001243 -1.6289537981 6.8791141197 2.3534824668
S -3.6756440509 1.7462840410 3.5778590635 0.1037847048 0.1499779247 -0.8014188371
O -3.3855793229 0.6629706629 4.5544464420 -0.4837911776 -5.9780285571 4.3044645792
N -2.3419941397 1.8836479988 2.4727386529 0.6870905737 2.3191655260 -3.4889269365
S -0.9329189643 1.3932318873 3.3239108347 -1.4471675556 2.5474762198 0.4563285245
O -1.2016923758 0.6839874009 4.5992554502 -0.2419653091 -4.9958316914 6.1145215023
O -0.0164994028 2.5500405632 3.6314554871 4.2360560803 5.0159915976 -0.1649611710
F -0.0823642688 0.3925835250 2.2670532298 1.5477850370 -1.6696439299 -1.2788349734
F -5.0584622667 1.2871802229 2.7338953846 -2.4801909180 -0.6699602502 -2.1643911941
39
energy=-47295.2790083386 config_type=IL_pair name=Pyr14-FSI Properties=species:S:1:pos:R:3:forces:R:3
C 4.0745120759 -0.4779879659 0.4935083813 -7.4335532176 -23.6422731302 3.9418412861
C 2.9277178513 0.0549891464 -0.3121674949 -6.4206378045 -1.7732678312 -1.5875350242
C 1.5864786279 -0.2370775657 0.3196131931 -1.2486308652 -2.4111768916 1.2374941001
C 0.4821155733 0.3118763466 -0.5175973690 0.6662862966 -15.1765451417 1.6097260334
N -0.8456420869 0.0775434442 0.0135517337 1.1375575016 -0.5849850762 0.0595757815
C -0.8539422541 0.3529145690 1.4337237694 1.1765933573 1.9826215226 4.1364566710
C -1.7463118418 0.9635053665 -0.7013346925 -2.8794470889 2.9958597438 -1.6057951764
C -3.1109443889 0.3935463741 -0.3767830830 -2.6419581180 1.5071283076 -0.6762235659
C -2.8489080851 -1.0948487391 -0.4703571290 -2.5628720357 -1.5504661891 0.6084502136
C -1.3554584095 -1.2219341917 -0.3302006211 -0.3824458721 -5.5014789212 -2.3104685481
H 4.7332627481 -1.0485001779 -0.1946925199 -0.1644715120 -1.1349792773 0.5997572655
H 4.7029159535 0.3462061675 0.9222992285 4.2908797934 -5.4702967176 17.0316319050
H 3.7775645914 -1.2088004977 1.2809998465 -1.0186852264 -1.3575697176 -0.0471486076
H 3.0300549125 1.1620598817 -0.3744133917 -2.1937990493 -1.6607619260 -1.1670874922
H 2.9056383313 -0.3772736699 -1.3316922968 0.2807220048 0.2842185747 0.0750667713
H 1.4145287751 -1.3335909683 0.4117606598 0.7303018073 -0.0497047481 0.4451931671
H 1.5712233316 0.1866530388 1.3393045085 0.2686265562 0.0245108218 -0.1469327654
H 0.5221631277 -0.1926289321 -1.5146425827 -0.2303977006 0.5423934628 0.6664327696
H 0.6144472492 1.3962791396 -0.6298983210 -5.0474518559 -28.1057254716 18.3708707681
H -0.4215691606 -0.4971085606 1.9921626926 -0.4240148167 0.0854013012 -0.0741479297
H -1.8201853912 0.6850554683 1.8268708043 -0.4704624149 -0.5489616605 -0.0724874543
H -0.1644184927 1.2291072236 1.5899858693 -0.3502902254 -0.5390922559 -0.0202004920
H -1.6271110818 2.0195564921 -0.3879367589 0.2912602186 -0.2051180220 -0.3040248188
H -1.6117503973 0.8011113388 -1.7843268738 0.6132343933 0.4749137559 0.0332204125
H -3.4688151054 0.7143640673 0.6257731226 -0.0428855843 -0.1158619017 -0.5188429680
H -3.8582091214 0.6811534866 -1.1724199672 0.5464534437 0.1189522368 1.0484057232
H -3.4085517028 -1.6199342743 0.3261153673 0.1618067239 -0.1494366380 -0.2172062575
H -3.2147190287 -1.4624477148 -1.4449406168 0.2299304099 -0.2324208850 0.1966087159
H -0.9617278224 -1.4586484155 -1.3595902281 0.0276144553 0.1735529566 0.9492072793
H -1.0243587783 -2.0433256167 0.3273247692 0.1393145379 0.3468275724 0.2905362736
O 1.2676925678 4.4080257124 -0.2944492882 -3.2254884514 5.5932686392 -1.1512479002
S 1.8081739376 3.0034194854 -0.2379161996 6.9527434747 5.2914348839 1.2553837043
O 1.9753569576 2.5905592925 1.2084353389 -0.3520398970 -3.0677872532 5.9850730773
N 3.3143103053 2.9361619197 -1.0595239594 -1.5564470266 0.7662298131 -5.0817603463
S 4.5920090706 2.3629230842 -0.0697035091 1.1792604026 9.5423539742 -3.5367942854
O 4.6163303913 2.9958197492 1.2816658883 -0.5754536038 2.7747162437 7.7074518833
O 5.8807667191 2.7425229053 -0.7638034484 5.4808285541 1.4836817059 -4.0532916742
F 4.5834841348 0.7153153974 0.1327014486 12.9756317585 19.0716733245 -16.5265692635
F 0.7162541974 2.0103704316 -1.0051323200 2.0716820329 40.2175610252 -27.1478146493
39
energy=-47311.8573670076 config_type=IL_pair name=Pyr14-FSI Properties=species:S:1:pos:R:3:forces:R:3
C 3.4388058018 0.0324957164 -1.2973044636 2.9400912223 -0.1518696669 -2.9839902946
C 2.9241091798 0.1175869446 0.0831494087 1.6204498735 0.3191720222 1.6114679146
C 1.5086876024 0.5636303393 0.2446403528 -0.0281566074 1.7363924487 1.6831864677
C 0.4854521515 -0.2967645126 -0.4200791305 2.6972249953 -1.3147855288 -3.8258454279
N -0.8305868410 0.2684502751 -0.1705523251 -0.5559779870 1.3071063159 0.7925814979
C -0.8110342403 1.7092510856 -0.0537362570 -1.8992598435 4.7649354234 -0.1607702913
C -1.3255930374 -0.2853235322 1.0471945140 -12.7017279360 8.0969335559 -1.1095627762
C -2.3493438319 -1.3323465111 0.7016323721 0.2647624333 -2.1863186781 1.8720601953
C -2.6463616902 -1.1619169585 -0.7522669767 -2.4624475214 -1.5898914688 -1.9621209899
C -1.7570035286 -0.0452550454 -1.2263497117 -3.3537042460 0.4114266848 -5.5252690310
H 2.8259882048 -0.5147468010 -2.0194107058 -0.4251120093 -0.0411926219 -0.0303367805
H 3.7260282952 1.0182944400 -1.7462909385 -0.6039489264 -0.4995286791 0.2895526840
H 4.4060323176 -0.5331788666 -1.2484728552 -0.5713743389 0.3455962692 -0.1886152838
H 3.1200406784 -0.8275278351 0.6298512557 -0.4296990850 0.3875567964 0.3522398205
H 3.5510004162 0.8775821328 0.6072894763 -0.2545505841 -0.4565705720 -0.0198155298
H 1.3806207984 1.5999581490 -0.1316859389 0.5605839798 -0.4997547908 -0.0066216074
H 1.3005116521 0.6040586672 1.3348704173 -0.0001991079 -0.1717920471 -0.2495088193
H 0.6217209030 -0.2731639652 -1.5354930645 0.2335945131 -0.1354402127 0.7275468949
H 0.4350589515 -1.3267257725 -0.0637606389 0.3436838188 -0.3110135910 0.2478766582
H -0.3296203991 2.0774618692 0.8727102299 0.0152334891 -0.1879656519 -0.4415834525
H -0.4052216152 2.1417439763 -0.9870020284 0.3034149313 0.2213635266 0.3323214566
H -1.9020530242 2.0013270469 -0.0304722203 1.0867681468 0.0504055893 0.3164241409
H -1.7981840229 0.4501696009 1.7413728633 0.1200867929 0.3575950877 -1.2881476176
H -0.5345802798 -0.7886137593 1.6668926601 -22.2866095861 26.0488247152 -2.8843607731
H -1.9343111231 -2.3687298717 0.8439824271 -0.1288628130 0.3446351429 0.4594249689
H -3.2513512840 -1.2681087699 1.3468909289 0.2952870289 0.0247641180 -0.3069956482
H -2.4710411840 -2.0596763334 -1.3775730528 -0.0514596256 -0.0164956357 0.4114103649
H -3.7309537545 -0.9273760937 -0.8417969054 0.5542307137 0.2068073749 -0.5442450278
H -2.4343856143 0.8168748835 -1.4691016346 0.8897490472 -0.2271315124 0.3333867847
H -1.2124314823 -0.2694304985 -2.1675393489 -0.1330209973 -0.0676433943 0.2645596995
O -0.7890034028 -3.5688910377 2.3110692777 -3.8075595945 -3.5435435460 -0.5892788221
S 0.3148199139 -2.5581317437 2.5326156821 4.4717530288 -5.5510174898 3.1629607747
O -0.0552142470 -1.3323248135 1.7852182511 31.0484862038 -26.7009738894 6.0729115831
N 1.7648532578 -3.2683765198 1.9895781412 -0.8479064427 -3.9923880331 -2.9474866478
S 3.1858244887 -2.5085801409 2.5641798885 -0.1166830057 -0.3429448537 0.9455652654
O 3.0978157899 -0.9998242699 2.5087377351 -0.1988379656 5.9890626160 -1.0273710448
O 3.5425083419 -2.9352980126 3.9703216110 1.5740113128 -2.4814908418 5.1178858394
F 4.4703936687 -3.0381736407 1.6086068291 1.7882428779 -1.0735834008 -2.1888068742
F 0.3177876272 -2.1832252617 4.1574113291 0.0470320117 0.9349476433 3.2879662948
39
energy=-47320.6030969639 config_type=IL_pair name=Pyr14-FSI Properties=species:S:1:pos:R:3:forces:R:3
C 3.3934287289 0.4552730309 0.2870661829 2.1300096445 1.5550288063 0.4406388826
C 2.8800029161 -0.9627657527 0.2453875038 0.3443326398 -1.4341692085 1.6723604207
C 1.5550856361 -0.9652677875 -0.5074548289 0.3390420786 -2.2856637755 -0.8001083070
C 0.6249421789 -0.0690099527 0.2505821941 4.6981052424 0.1900367258 3.1518560656
N -0.6857343668 0.0478507380 -0.3231492915 0.3466161309 0.5905552605 0.6218119943
C -0.7694352117 -0.3571514695 -1.6921481302 -1.8275723531 -2.6780868393 -4.3645135908
C -1.6281867138 -0.7695785720 0.4251325305 -2.1700320253 -4.3688514858 1.7988282219
C -2.9429233606 -0.0370621858 0.4047856186 -2.8831183331 -0.7794873005 1.6574079501
C -2.6633343351 1.3383008244 -0.1229953682 -0.5474206972 2.1914606908 -0.9073335248
C -1.1545026422 1.3955301974 -0.0697975383 -0.4295324132 4.5380664100 1.6095059950
H 2.9661633411 0.9991010285 -0.5699281198 0.4914162771 0.4235498056 0.0975647306
H 4.5196407014 0.4443346446 0.2110609132 -1.0774122054 0.3577059272 0.0705632943
H 3.1159840594 0.9610410364 1.2479206260 0.2375728973 -0.1968686169 -0.7888202783
H 3.6146040954 -1.6534729346 -0.2047726771 -0.2283897166 0.0585912857 -0.1422599958
H 2.7261607170 -1.2810350263 1.3093196457 -0.0025315965 -0.2762464294 -0.7241485990
H 1.1357243893 -1.9987562495 -0.5505234474 0.2840295363 0.4407223135 -0.1600752520
H 1.7493319346 -0.5921426006 -1.5221709406 -0.0984624576 -0.1124750963 -0.1768667390
H 1.1372995912 0.9140915400 0.3697900024 -0.8500438109 -0.2279651664 -0.4023304282
H 0.5323477681 -0.4805611951 1.2911397799 -0.1688267621 0.1064709681 -0.2046988970
H -0.6455535941 -1.4797997282 -1.6850777140 0.1939358180 1.1371711249 -0.4653880891
H -0.0347219381 0.1058275127 -2.3596670858 -0.0277419816 0.4021337318 -0.0333565506
H -1.8345483814 -0.1793781406 -1.9999629298 0.9574099627 0.1230208278 -0.2915299370
H -1.7418170118 -1.7587086135 -0.0703376232 0.3192771501 0.2845816975 0.2403615304
H -1.2371034934 -0.9825221528 1.4377407141 0.1927499418 0.0864480174 0.6289081879
H -3.6793358361 -0.5713203401 -0.2264568343 -0.0463376478 0.1152264783 0.4545801999
H -3.3231171856 0.0776059448 1.4572660155 0.0524557701 -0.6106610335 -0.7912497913
H -3.0666677999 2.1281474820 0.5475869693 -0.0928605532 -0.1855249684 -0.6521230287
H -2.9822328342 1.4854837642 -1.1718831291 -0.4052334811 0.1441054594 0.3362997007
H -0.8585994581 1.6400285469 0.9755643605 0.0606182794 -0.1262890534 -0.3424334573
H -0.7029018948 2.1459164105 -0.7241987269 0.3631052311 0.0115027254 -0.4922842623
O -2.2991225108 -0.8160492650 4.0274737745 -3.5717518617 6.2875501523 -0.9179175723
S -1.4741992210 -2.0451376830 4.2375379914 2.1465958035 -0.6695123677 0.0205687489
O -2.2137751677 -3.3098170732 3.9305811265 -3.2473376181 -6.0419660326 -0.8437088570
N -0.0941614712 -1.9849855278 3.2241629194 0.8197460106 0.3442131724 -4.3634328600
S 1.3219667749 -2.1532526197 4.2194328621 -1.6338914252 0.3206119678 -1.9937026131
O 0.9854519898 -2.5899845246 5.6015314886 -0.4400359987 -3.9770030560 6.5849637090
O 1.9198669915 -0.7818737447 4.2959029210 3.9528675559 6.2938153439 -0.8160928211
F 2.3222650735 -3.2293880941 3.4225010866 2.1255627765 -2.3643300888 -1.9930158537
F -1.0705322295 -2.0617229859 5.8684870459 -0.3042208555 0.3353418668 3.2828459425
39
energy=-47316.6091743475 config_type=IL_pair name=Pyr14-FSI Properties=species:S:1:pos:R:3:forces:R:3
C 3.8329371357 -0.8116125535 0.0001532966 1.7280750635 -2.3908791616 -0.5345138480
C 2.8482491548 0.1960312303 -0.5475680987 -0.0400510281 1.9002426113 1.1724846567
C 1.4938758025 -0.1317534304 0.0738339890 1.3422218663 -0.8125929980 0.6724732745
C 0.4270100631 0.8193247038 -0.4068721834 2.4775040988 0.1423955308 -2.2076645209
N -0.8214452952 0.4400217472 0.2280265853 -0.4954899761 -0.9642614139 -3.0837545602
C -0.8300821779 0.9307864708 1.5762528259 -0.0917529860 1.7572798577 3.5354230658
C -1.9505163252 1.0450564231 -0.4516841325 -2.4609353352 2.3136059497 -4.6262250427
C -3.0243033874 -0.0007921076 -0.5686177047 -3.0229153781 -0.7417867363 0.0295195467
C -2.5175089343 -1.2063097732 0.1829689078 -0.0112568145 -1.4667848260 0.9473872626
C -1.0125044632 -0.9936264272 0.1233349900 -0.7343524419 -4.3675916797 -0.2655838865
H 3.3503156496 -1.6042578618 0.6109772291 0.0453473255 0.4236291014 -0.1880322701
H 4.3117581667 -1.3548502373 -0.8547268238 0.0786031169 0.3936203539 0.7396009800
H 4.6081017726 -0.3524061992 0.6284475661 0.1201520296 0.0351917586 -0.1443148326
H 3.1487929170 1.2005500670 -0.1398939818 -0.2559184126 -0.4648607089 -0.9584490785
H 2.7770637641 0.2086921578 -1.6347395132 0.2251222690 0.1201423507 -0.4710534806
H 1.2364079406 -1.1707428939 -0.2033893649 0.1373924226 0.3723922402 0.1241101900
H 1.6649692363 -0.0969880328 1.1691232788 -0.5408956803 0.0160215819 -0.2620238578
H 0.3346034648 0.6591897595 -1.4969850290 -0.2229323210 0.1970800731 -0.0284174109
H 0.6763058328 1.8678768790 -0.2391424975 -0.1244899971 0.5355856903 0.3872710738
H -1.2345237822 1.9807490444 1.5535800984 -0.3223017301 -1.3717081668 -3.5600579439
H 0.1882324519 1.0365887863 1.9972939329 1.4649944185 -2.3361876370 -2.8505597655
H -1.4821372761 0.3318454938 2.2486311080 -0.0475238514 -0.9724044443 -1.5369939285
H -1.6497068519 1.3193273827 -1.4990628536 0.0653973809 0.0881384610 0.7942194809
H -2.3416627471 1.9433147178 0.0318828809 0.2333887115 0.3298246784 0.6780554928
H -3.9566157671 0.3128694363 -0.0691029032 -0.1120867883 0.3380329831 -0.4573138974
H -3.2314107771 -0.3056168325 -1.6038785904 -0.0801115181 0.4132101211 -0.1508160143
H -2.7736019423 -2.1696490352 -0.2991259611 -0.1099448201 0.2246854273 0.2815275506
H -2.8181558828 -1.2230513252 1.2488124609 -0.3252899141 -0.0112316446 -0.3546302997
H -0.5738783708 -1.5668805260 0.9595319050 0.7232516480 0.3224598911 -0.3595626588
H -0.6805693718 -1.3036870641 -0.8800127823 0.4080244877 -0.3193179385 0.1802349957
O -5.7585055267 1.4153335954 2.4446853501 -3.5976600270 -2.9207605868 -4.3201658915
S -4.8093588051 2.3460645776 3.1739142296 0.7455347894 0.2246725292 -0.8052936763
O -4.8678835628 1.9844610737 4.6156952040 0.1526861321 -0.6589551651 7.8820322013
N -3.2741320188 2.1555862841 2.4654698836 1.7887180687 -0.7172042374 -6.0567430574
S -2.0083711289 2.2482811609 3.6177773063 -5.1782505972 3.2063379782 1.9471324760
O -2.2974044030 1.3591039864 4.7788366682 -0.5166499904 -5.6696001715 5.2564261912
O -1.8257990344 3.6643600967 4.1152412041 1.6269823099 5.9676577275 1.1495834913
F -0.5625928088 1.8103176681 2.9199815566 5.7358845166 3.6446495928 8.0061425188
F -5.4196550646 3.9023662331 3.0146522122 -0.7988537534 3.2119057037 -0.5646146024
39
energy=-47319.8476107247 config_type=IL_pair name=Pyr14-FSI Properties=species:S:1:pos:R:3:forces:R:3
C 3.7721203110 0.0532490299 0.2562029724 -0.5087221708 -0.3054146626 0.4242120619
C 2.3045930552 -0.0621399480 -0.1810779973 0.7414478701 -1.2328858564 -1.5002181464
C 1.5297455388 1.1534378109 0.2654737615 3.2197155303 1.4347849500 0.7019306107
C 0.1058815810 1.1416199418 -0.1132216171 1.5424639136 7.0447999428 -3.5311518333
N -0.7308664962 0.1037289152 0.3614869807 -0.4276668902 -1.6122651109 -0.3219335140
C -0.2990849008 -0.6230921679 1.5082503441 1.3599081300 -3.2473854927 6.8342404722
C -0.8973807932 -0.8881297062 -0.7124285144 -0.9847736124 -1.8873415917 -4.3260856610
C -2.3311671461 -1.3448999207 -0.5801728708 -1.0321699027 -0.6728880471 -0.5890918325
C -2.9946429946 0.0284782946 -0.4124045543 -0.2871950102 -0.6642119901 -1.2479894309
C -2.0598577633 0.6280671028 0.6147231766 -5.3578628093 2.8824569525 2.1492542208
H 4.3171818627 -0.7042014248 -0.3196865675 0.5346213469 -0.0308587585 0.2530597482
H 3.7806603741 -0.1208104616 1.3411584459 0.6918623170 -0.1816069565 0.0548904261
H 4.1464862289 1.0601818608 0.0630025616 0.3416205844 0.1715627445 -0.2363047767
H 2.3034272991 -0.1766351362 -1.2959115680 -0.5721392963 0.1072262672 0.1964015917
H 1.8798628574 -0.9730283219 0.2550082626 0.0225020536 -0.2712166507 -0.0712514116
H 1.7436519446 1.3041153643 1.3398354668 -0.5653828320 0.1578795370 0.0602991237
H 2.0365767485 2.0236826869 -0.2432340430 -0.8980090863 -0.4548372757 0.3524878855
H -0.3642222841 2.1364781955 0.1480636578 0.5536523468 -0.9047047307 0.1635589656
H 0.0768702378 1.1561938148 -1.2451313418 0.0342545952 -0.3051717649 0.9320179651
H -0.1226747471 -1.7136040618 1.3167871446 0.3743462566 0.9679853479 -0.1719094909
H 0.5504237670 -0.1671129901 2.0687119525 -0.1725201013 -0.2369257511 -0.8080678991
H -1.1306144538 -0.6254984312 2.2586816016 0.6582681568 -0.0660484649 -0.4171672023
H -0.1849021051 -1.7046319729 -0.6749287737 1.0338388477 -0.2140765351 -0.1861602982
H -0.8522493640 -0.3053816661 -1.6757831549 0.5285173183 -0.9624604246 0.5036483904
H -2.6674569097 -1.8586570275 -1.4842049859 -0.0025988104 -0.2085935598 -0.3114497953
H -2.5060921789 -1.9986437371 0.2714166288 -0.0105471516 -0.3355480624 0.5100991285
H -4.0200527100 -0.0659923671 -0.0546717197 -0.4554901525 0.4630507121 -0.0548700273
H -2.8837329279 0.5352992637 -1.3878668249 -0.6951269060 0.2504791570 0.2071252668
H -2.0541002961 1.7419570076 0.6043766359 -0.0127243703 -0.5365974085 0.1797637389
H -2.4483837350 0.2659700523 1.6020534962 0.5680877920 0.6159996045 -0.4844282769
O 3.8889939681 -1.9740849554 -2.7288617235 0.9086811364 -3.2920580625 5.3506326637
S 4.0227012793 -1.2482886459 -4.0493438909 -2.0501886231 -0.2031378392 -0.0191238637
O 3.9893171863 0.2496152780 -3.8479854414 1.0010273236 6.4102993336 0.2669003315
N 2.6175727088 -1.6192410901 -5.0014196662 -0.4273802942 -0.6525264694 -5.6509980835
S 1.2627703495 -1.5165974919 -3.9257130953 4.1964238248 -1.1702702902 -0.7250911946
O -0.0234007227 -1.7485436969 -4.6436898165 -6.5630714689 0.0168908135 -3.8091787631
O 1.5221516837 -2.5653902742 -2.8650773955 -0.0354872121 -3.5450907808 5.2541507733
F 1.2767998179 -0.0372003425 -3.1359020914 -0.3169808106 3.8935001475 2.2700060746
F 5.4160070030 -1.7511288913 -4.8085028855 3.0716720659 -1.2320905668 -2.2073981499
39
energy=-47319.9801646115 config_type=IL_pair name=Pyr14-FSI Properties=species:S:1:pos:R:3:forces:R:3
C 3.3520505604 1.0064881610 0.0391343893 0.5775678707 0.1112420466 1.2486557627
C 2.9853309018 -0.3311765919 -0.6003707540 1.0469821949 0.2813593154 -1.0355159160
C 1.6783900241 -0.8010748260 0.0232573928 0.5171979740 -3.1977831201 -1.4952114074
C 0.6519945434 0.2362952161 -0.2653149686 3.7105131112 1.8713354563 -2.5428389753
N -0.6558420667 -0.0218719118 0.2414075879 0.4621890857 0.5597986725 -0.5264729290
C -0.7033642591 -0.4233621939 1.6230641512 -1.4214628662 -1.5587609143 4.2301290146
C -1.3881334553 -1.0158709999 -0.5206640966 -1.6112813475 -4.6294712934 -0.7365323092
C -2.8325876551 -0.7234349398 -0.0984708890 -2.3946067271 -1.0802251528 -2.5392404547
C -2.8296416468 0.7166536799 0.3725815741 -3.5029260845 0.8805570271 -0.8898747312
C -1.4561623810 1.1633155390 -0.0344788381 -1.6501920787 2.6851203560 -3.3812895769
H 2.8901009741 1.8303842839 -0.5212673714 0.5063398707 0.2495671969 0.0248585853
H 2.9331080569 1.0240527106 1.0729714459 0.5829759711 0.5028872325 -0.3299462480
H 4.4511525001 1.0868758596 0.1180454685 -0.2893681495 0.5386414276 -0.2042700712
H 3.7863097377 -1.0748291661 -0.4527160584 -0.1561178912 -0.0559097551 0.0648842730
H 2.8971510805 -0.1382567365 -1.6880586840 -0.1982467769 -0.5807867750 0.1071063769
H 1.8702746190 -1.0062412770 1.0761452655 -0.2642774639 -0.0431459436 0.4588266222
H 1.3746824681 -1.7385265558 -0.5254098221 0.1886552569 0.3660780414 0.9534846958
H 0.5587772244 0.2995447901 -1.3774342352 -0.0633219419 0.1898410648 0.5344251032
H 1.0152773606 1.2168260044 0.0967742270 -0.6896000293 0.1840902200 0.5718452730
H -0.1594977964 -1.3610811680 1.7212230011 0.6393881998 -0.1692685890 0.2686942758
H -1.7645663501 -0.6710649011 1.8509980865 0.7824653283 0.2745276767 0.1749076598
H -0.3869704578 0.3671768798 2.3178660433 0.6160748199 0.5496247859 -0.2115856459
H -1.2542415960 -0.9112077269 -1.6062149085 0.4015329636 0.1726306652 -0.0341542136
H -1.0905993045 -2.0397571834 -0.1721513845 0.1073742414 0.5615872949 -0.6122378602
H -3.4686111321 -0.7531672556 -1.0192535332 0.2430094293 -0.6092485011 0.6604968872
H -3.2205019870 -1.4389174276 0.6288944514 -0.1450369275 -0.2429892008 0.1478647050
H -3.0608446809 0.8478287972 1.4329271208 0.2916757800 -0.2057663186 0.0309749518
H -3.6042741013 1.3306368915 -0.1690382956 0.7010413229 -0.5755684127 0.3815289641
H -1.0944509840 2.0751644123 0.4361590793 0.4587807915 -0.3638332590 0.0327996067
H -1.4743101971 1.2485976362 -1.1577693150 0.3961508045 0.1004603593 0.6365571764
O -1.3545781827 3.4999586933 3.7109812999 -0.4240432813 2.1992866052 5.9717994359
S -1.1284639170 3.2214657474 2.2466848944 2.7534905876 1.6506670312 2.7601829282
O -2.1679722649 2.2037300538 1.8683038388 -4.3164090056 -2.2399942494 -0.7435111167
N 0.4067552969 2.5486017285 1.9247642950 0.3548005341 -5.0486933734 -3.0070971562
S 1.7052379169 3.6026951835 2.2868999735 -1.4715979718 -0.2613001760 1.6746659126
O 1.6364072976 4.1291092716 3.7033828656 -0.0165740965 1.1256382129 5.9142116950
O 1.8235080137 4.7497213022 1.3472460305 0.9496595423 5.1142069691 -5.8472599528
F 3.1426391295 2.7457214038 2.2128189443 2.7549723490 -2.5194629040 -0.3746491815
F -1.3495712098 4.6596970424 1.4472050649 -0.4420278097 3.2160956246 -2.3324955554
39
energy=-47264.2807377609 config_type=IL_pair name=Pyr14-FSI Properties=species:S:1:pos:R:3:forces:R:3
C 3.4031864258 -0.8108225496 0.2301640354 1.6480374018 -2.0010377256 1.3879199336
C 2.8275268045 0.5727834682 0.3727225230 1.4344559683 0.9488186666 -0.4469300701
C 1.4883229820 0.7273350540 -0.2934903302 -0.4263692681 2.8026237231 0.8986411974
C 0.4456820334 -0.2046242180 0.2597470906 2.3756319148 -0.9183980206 2.3745916380
N -0.8103288285 0.0158400113 -0.4420467130 -1.8019711697 3.0075175054 -0.3834201221
C -0.6267838224 0.1251392863 -1.8823637757 -7.9346722731 20.5578454574 -3.7486076333
C -1.7185326499 -1.1085795240 -0.2499140446 -11.4153245117 22.1524218849 2.8287658127
C -2.5623153565 -0.7964176775 0.9549788368 -0.0738184315 -1.9284035716 2.1109820717
C -2.2737844861 0.6392992845 1.3133988345 0.5073996789 0.1424168768 1.7250666183
C -1.5701092746 1.1239389666 0.0652002493 -1.3126477904 5.0875769945 1.2467060225
H 3.1900241193 -1.2809600380 -0.7359578094 -0.2074940115 -0.1095152628 -0.0880741422
H 3.0906184867 -1.4768868122 1.0868973006 0.0271877457 0.4139222970 -1.0956383455
H 4.5066789016 -0.7228275619 0.3202180879 -0.2950277521 -0.2669987331 -0.1021111812
H 3.5308520394 1.2700468483 -0.1282182759 -0.2391681279 0.0739653997 0.2789603048
H 2.7984074366 0.8312926811 1.4301976652 -0.1745819065 0.3212249701 0.4826545408
H 1.5570585460 0.6284419971 -1.3737094454 0.1672979948 -0.1681304476 -0.4204951545
H 1.1486137008 1.7687949688 -0.0578816484 0.1364154273 -0.4682842008 -0.5559831136
H 0.7496173434 -1.2478298312 0.0394786492 -0.1144697639 0.3365665372 0.9226683620
H 0.2348264696 -0.0301647646 1.3261038635 0.3964769603 -0.2147838470 0.1657479644
H 0.1478020198 -0.5817410397 -2.2169754811 2.2154326789 23.8996912588 -20.5481627320
H -0.4921122862 1.1659663557 -2.1967715801 -0.7622251532 1.3434657050 0.9314865073
H -1.5659412194 -0.2238027079 -2.4015803479 1.0507441693 0.8031735960 0.3689001253
H -1.1695867898 -2.0740049994 -0.1532265748 -41.9325880385 174.3224149263 16.7921344992
H -2.4123798741 -1.1568178683 -1.1155204239 1.5970311722 5.2512894359 3.7504982420
H -2.2787930209 -1.5062506752 1.7398612539 -0.5215419657 0.1408176565 1.0426365723
H -3.6501990177 -0.9431792541 0.7626531055 0.6294110395 0.0529374457 0.0205195701
H -1.5419246536 0.6621897379 2.1481131786 -0.6008417891 0.4373412208 0.0721556369
H -3.1910013658 1.1924768029 1.5479641459 0.1611145102 0.3497210948 0.1550752486
H -0.9612775191 1.9967989730 0.3455851623 0.4123373441 0.2319878282 -0.4790383635
H -2.2941471441 1.4445650860 -0.6956275318 -0.0274825353 -0.1160398371 -0.2680421847
O -3.5940567130 -2.6048900785 -0.1783023981 0.3778399419 -4.1595783543 4.5114502438
S -3.8079997730 -2.0755306514 -1.5735966206 -3.7442876573 -3.2481050298 -2.1396727282
O -4.8444066185 -0.9777627420 -1.6015097392 -3.7557644011 4.4925900642 -0.9076331273
N -2.3592031463 -1.4694839764 -2.2636373442 -3.7144204539 -1.8964377625 -14.1744757190
S -0.9507741270 -2.2034604253 -1.6297663742 -0.9999587968 -3.4005331936 -9.6108981094
O -1.0479495238 -2.5550475799 -0.1862013260 52.3401988540 -205.2033585424 2.3719977325
O 0.1907334995 -1.2286970820 -1.8119279098 15.0512193134 -35.2923130006 15.1367213758
F -0.5299861438 -3.5835851538 -2.4777375726 0.3500306163 -5.5174265962 -2.7070246441
F -4.4592397517 -3.3409776943 -2.4683744558 -0.8222862798 -2.2718613297 -1.9061167800
39
energy=-47321.0721252081 config_type=IL_pair name=Pyr14-FSI Properties=species:S:1:pos:R:3:forces:R:3
C 2.8682412777 0.4330527770 0.7435418968 2.4545304845 1.5049636486 0.4746499071
C 2.3318426457 -0.9023007042 0.3142774249 1.4268374214 -1.8631185839 0.4503235813
C 1.6952176839 -0.7915083007 -1.0534568709 2.4889114433 -1.8384661430 -0.8511278318
C 0.5663304180 0.1597643304 -1.1212816246 3.9584983877 3.6641837528 -4.3851639796
N -0.5605270472 -0.0741949793 -0.3003339732 -1.7069352221 1.3781305954 0.8384994763
C -0.8944026377 -1.4272441117 -0.0432639248 -2.0774934258 -6.2641135898 -0.1743852779
C -0.5595694581 0.7004164660 0.9484786918 0.4737752796 2.0207571303 3.1377024696
C -2.0416605997 0.8002159322 1.3286557673 -0.1397483515 0.7686965496 2.9620191588
C -2.8038174102 0.6445280270 0.0527661421 -3.4722817543 1.0237260555 -0.9025650795
C -1.7083040643 0.5675119980 -0.9629630108 -1.9718221773 2.1720680275 -3.4012859515
H 2.2749138262 0.9706934351 1.4804339031 -0.5195100529 0.2526106426 0.1215475659
H 2.9899115384 1.0541443344 -0.1791177712 0.2654703619 0.0279758924 0.9464564985
H 3.8775789909 0.2809082150 1.2258708050 -0.8776881790 0.3979421841 -0.5563630642
H 3.2197338597 -1.5835668883 0.1612753181 -0.9487891996 0.2344988553 0.5204895333
H 1.6859168281 -1.3737993984 1.0692982297 -0.1222302374 -0.4002160970 0.0103558495
H 1.4784862673 -1.8132336490 -1.3758655768 -0.6187073018 -0.1725384864 -0.4035064769
H 2.5216365447 -0.4453578987 -1.7355830700 -0.9987966193 0.0461573866 0.2412577541
H 0.9474025883 1.1897522413 -0.8522031096 -0.2697754062 -0.9001858998 -0.1967862641
H 0.2482346517 0.2749645331 -2.1843435145 -0.2123666545 -0.3836382121 0.3942504923
H -0.4683005903 -2.0781657526 -0.8326673628 0.0904205316 0.1465089988 0.5033089796
H -0.6666289425 -1.7971053566 0.9867565111 0.3412912691 -0.2237460811 1.1980046960
H -1.9926891466 -1.5505766834 -0.1331385419 0.4112669314 0.0363555845 0.0748307104
H -0.1948077093 1.7194365176 0.7024482552 0.3746926619 -0.3954980008 0.2310584152
H 0.0177051412 0.2066895754 1.7452025019 0.3918946431 0.0136775491 -0.1435077381
H -2.2790245271 0.0203806855 2.0784383442 -0.1341539238 0.3152718060 -0.0354674477
H -2.2326969096 1.8200651978 1.7322788354 0.1390130036 -0.6683326364 0.3714906362
H -3.4449044701 1.5510286054 -0.1574923180 0.6479399707 -0.8025271190 0.1170541157
H -3.5108046173 -0.2013285860 0.0357101478 0.2991935022 -0.1764868738 0.0464304066
H -1.3773882906 1.6139316422 -1.1757050055 -0.1510177817 -0.5917643524 -0.4193832495
H -1.9876258413 0.0308977953 -1.8865109846 0.2759074581 0.0508723479 -0.0933501903
O -0.9308303705 -2.3809963296 2.7773829536 -1.9887860830 7.1068156268 0.4516060232
S -0.3031276626 -3.7514478092 2.6584174223 2.4998599579 -0.7935135976 -0.5775552433
O -1.2954184375 -4.6290348256 1.9661780135 -4.2948427247 -4.8963732217 -2.9496014052
N 1.1550920239 -3.6676158971 1.7442052374 -0.1507185946 1.4430765734 -2.6583128851
S 2.5548845191 -3.9510771013 2.6961576923 -0.8753538401 0.5612424251 -1.5218736753
O 3.7477407201 -3.4533215406 1.9105501983 4.4489735594 3.3677174448 -3.1367673063
O 2.7889559572 -5.3918780282 2.9885658371 0.2680493628 -7.3143869141 2.4658089140
F 2.5152928766 -3.1502169771 4.1504998885 -0.4678980361 2.2627624914 3.5822543156
F -0.0491585956 -4.3799507193 4.1875952406 0.7435584213 -1.1146897722 3.2601013152
39
energy=-47320.0650610911 config_type=IL_pair name=Pyr14-FSI Properties=species:S:1:pos:R:3:forces:R:3
C 3.3412564959 0.9434251899 -0.5269791683 1.5042874255 2.0163381969 -1.2838834075
C 2.9589431711 -0.3731672015 0.0733075065 2.4040448849 -2.0449658396 0.0231765104
C 1.5511966768 -0.4592119862 0.5373721934 -0.4644011810 -2.3724797635 1.2410103187
C 0.5333823127 -0.2392192594 -0.5594315096 2.1025896590 -1.0015417072 -1.8508593355
N -0.8003546304 -0.3546169722 0.0554901949 1.5560604051 -0.9230675915 -0.9784267541
C -0.8782018402 -1.5839460938 0.8236680148 -0.3602310859 -4.5505050520 1.6433192564
C -0.9852060586 0.8030553728 0.8659480360 0.9369223479 5.5187836236 4.5338047893
C -2.3327267841 1.3967186760 0.5359424605 -1.2242215824 1.2771141366 0.9222627538
C -3.0054049454 0.2542659504 -0.1759308991 -2.1480170711 0.1802812783 -0.5442707181
C -1.8359222059 -0.3104593537 -0.9610896532 -3.3058021631 -0.9198132715 -2.7844926883
H 3.4559176969 0.8041103880 -1.6253235878 0.1474437715 0.5168654595 0.4928246834
H 2.6090339631 1.7572920193 -0.3866394982 -0.0359327489 -0.1013547639 -0.0952639834
H 4.3066485553 1.3230898368 -0.0966252512 -0.6665481323 -0.3864928118 -0.5843532994
H 3.6115549945 -0.5576322614 0.9467788721 -0.1894418639 -0.2110094060 0.0020096770
H 3.1763368102 -1.2111107813 -0.6482154767 -0.2378353758 0.6597915861 0.5549161991
H 1.3939971061 -1.5120278549 0.8869867437 0.3843102254 0.8170134473 -0.0457564862
H 1.3945612787 0.1734757671 1.4062413677 -0.1850129086 0.6749633131 0.2294129648
H 0.6012825947 0.7279045725 -1.0638793670 0.0269893371 0.7195717786 -0.3852048459
H 0.5531168301 -1.0601517643 -1.3044938948 0.4741027080 0.2329084336 -0.1139004824
H -0.3421021117 -2.3900476922 0.2733559918 -0.2133358317 0.3376587484 0.1429378214
H -0.4205915600 -1.4896925015 1.8206367285 -0.1329245198 0.1852758806 -0.0946567424
H -1.9122249501 -1.9470430910 0.9361789651 -0.1848150119 0.4507987096 0.0713707078
H -0.2317467287 1.6008751612 0.6638436879 0.0605344920 -0.7284974590 -0.1089729649
H -0.8671464271 0.5581147809 1.9489518647 -0.2735732044 -0.0498005071 -0.5951460385
H -2.8166716786 1.6761129098 1.4923164869 -0.2330448519 0.3799697583 -0.5870932720
H -2.2644308208 2.2317504757 -0.1840036930 0.1896851680 0.2736239399 0.5603243227
H -3.3748405176 -0.4632539212 0.5634814542 -0.4483641434 -0.3435251845 -0.1735766424
H -3.8095660834 0.6266991058 -0.8398760434 0.0130994658 -0.4770051455 0.1990773650
H -2.0674461574 -1.3232550549 -1.3462677045 0.5123134079 0.1946698741 -0.2719460161
H -1.5426449860 0.3979455832 -1.7478565027 0.2005317118 -0.0753047612 -0.3818874716
O 3.0085101178 5.4739469102 -2.7508409975 1.1431866277 6.3885692153 3.3916074118
S 2.7581650447 4.0834187101 -3.2319744772 -2.4467249237 0.3251976354 -1.6258605745
O 3.8909773943 3.5138601606 -4.0163286346 5.5351810563 -3.5568010845 -3.3330420577
N 1.3855407368 4.1562366273 -4.2921645587 0.1022391249 -0.0780401686 -2.1638035822
S -0.0285139942 3.5576339062 -3.4797133916 2.5326236651 1.0896743020 -2.6316873045
O -0.9481975594 4.7176026009 -3.3060093805 -4.6954176928 5.5966093863 2.1104199786
O -0.6337243116 2.5226916841 -4.3925310781 -2.4562189557 -5.4810939080 -2.9598571850
F 0.3631893570 2.9355491373 -1.9894255632 -0.0868516311 -2.3259778853 4.3788981295
F 2.4609154143 3.0740068565 -1.9262939794 0.1693540035 -2.2078956325 3.0956322426
39
energy=-47274.6864717090 config_type=IL_pair name=Pyr14-FSI Properties=species:S:1:pos:R:3:forces:R:3
C 3.4905418366 0.8391104652 -0.2417416096 -56.4281507688 46.5237274665 -16.8835221199
C 3.0326063340 -0.6139711358 -0.2702761738 -19.0794333057 -12.2155185554 -4.5087676738
C 1.6632565659 -0.7789360199 0.3281526143 -2.3151696550 -4.4712034230 0.1573937355
C 0.6662629972 0.0273759665 -0.4271409284 4.3839733677 0.6882738802 -3.7401591187
N -0.6883163789 -0.0436442157 0.0463396826 -0.2639170400 0.9172615471 -0.7604993070
C -0.8533192308 -0.4318440805 1.4080065955 -1.8483069376 -2.8193600563 5.8267286820
C -1.5124210767 -0.8401272361 -0.8518515299 -2.1816914091 -2.5759358140 -2.1795011876
C -2.9261867824 -0.4659383505 -0.4172536926 -2.7080796693 -0.8437608236 -2.4269263197
C -2.7868319318 0.8912935084 0.2367690687 -2.1005255747 1.2448392536 0.5565158324
C -1.3680416502 1.2531939786 -0.1131252018 -1.0269267670 3.3392397282 -0.9899268562
H 2.8909689674 1.4954397186 -0.8716070657 0.4930904174 0.3174251355 -1.3470746007
H 3.3755629573 1.1719607371 0.8254086891 -6.2769513473 12.6063899513 -9.0956978761
H 4.5821393316 0.8724861645 -0.4376062298 17.8828874632 16.7506224381 -9.1635529115
H 3.7935782791 -1.1616822882 0.3533791148 -3.7478322416 -5.6824512928 0.7473066961
H 3.1269404006 -1.0367179374 -1.2917142746 -0.5937532024 0.5751983085 -0.0565334216
H 1.4155539830 -1.8486573785 0.2445108592 -0.7767755666 -0.2074516693 0.3945867158
H 1.7244503345 -0.4193672065 1.3753438231 0.1838372862 0.1306781082 -0.3846577565
H 0.6755005181 -0.3384130473 -1.4897909033 -0.2991000559 0.4415558502 0.5839657935
H 0.9287168974 1.1010464920 -0.4761720859 0.4247843707 -0.1640660227 0.3902449352
H -0.8733369776 0.4344254792 2.0926911069 0.4798090214 -0.0159641417 -0.2295286847
H -1.8578434082 -0.9287642111 1.5072345768 1.0490329892 0.3812210648 0.0988312353
H -0.1268250611 -1.1740410571 1.7880903262 0.2244361022 0.3452314852 -0.5711757440
H -1.3603949765 -0.4548461912 -1.8863257368 0.3645269699 -0.6218094762 0.4076389332
H -1.3327461928 -1.9199280397 -0.7523530890 0.5045416490 -0.1189307484 -0.1887763475
H -3.5478797620 -0.3427976951 -1.3497530379 0.3579559367 -0.4726842665 0.8473863963
H -3.4068202982 -1.2228054670 0.2111554383 -0.0994014413 -0.1168919967 0.1274190770
H -2.9428639481 0.7890479460 1.3085871957 -0.0536638814 0.4653269224 0.4529813517
H -3.5296811480 1.6109551200 -0.1496522679 0.2584404106 0.0359535838 0.0518296322
H -1.3243825225 1.4906994604 -1.1985400638 0.3042269993 0.3906017270 0.4374080439
H -0.9281880569 2.0454465215 0.4992347996 0.4529364830 0.1703499170 0.1920995632
O 6.9625523240 1.8640168990 0.7836170323 2.0246416418 5.7755502068 -2.6463914407
S 6.6875088430 0.6175982250 1.5944414790 -2.6212021451 0.7423380125 0.8074989189
O 6.5882691157 -0.5295524506 0.6321194678 -0.1841949073 -6.2877679199 -3.9941987390
N 5.1737995978 0.8929264217 2.4029364706 -0.0185202057 2.7627818275 5.9039097415
S 3.8678462467 0.2369679416 1.4894434295 11.8872706254 -10.0184998516 33.0190501769
O 3.6622698373 -1.1722813920 1.9815354773 -0.2643100127 -7.7165015962 3.1663914880
O 2.5874334713 1.0058041642 1.7259300685 -8.4779963664 4.9925935068 7.8190550650
F 4.2149394213 0.1486490178 -0.1378196364 67.4400701357 -44.6383613425 -5.7304900869
F 7.8836211418 0.3056770701 2.7008235205 2.6272444936 -0.6118604741 2.9147021812
39
energy=-47305.0906006969 config_type=IL_pair name=Pyr14-FSI Properties=species:S:1:pos:R:3:forces:R:3
C 3.2735447559 0.7010733950 0.5572982463 0.9336214190 0.3180262598 1.2860610301
C 2.9826710930 -0.6608853979 -0.0725724306 1.0413038270 -0.7793705520 1.3770882203
C 1.5564464851 -1.0870223592 0.3132714835 1.1222915173 -1.8403959930 -1.5032552158
C 0.6689848167 -0.0156561927 -0.2353075783 5.9711192214 1.0136901810 -2.8923693585
N -0.7193499907 -0.1321675944 -0.0355625014 -0.7366173318 3.3216928151 2.1644020758
C -1.1386420584 -0.8948010480 1.1087203118 2.9987915742 17.1448713264 5.9129628414
C -1.4062236756 -0.6410673371 -1.1878853234 -1.7585363069 -3.0177248698 -4.3389055205
C -2.7001944087 0.1276216663 -1.3109809403 -1.6706926662 -0.0916483402 -2.5961588166
C -2.5800895336 1.3120566717 -0.4029246490 -2.3532122707 2.5817218656 0.5035268077
C -1.2167390607 1.2350444228 0.1863761923 0.8441825973 5.1627627873 1.3490761659
H 2.6835697168 0.7359248369 1.5087837981 0.4650757752 0.5919846153 -0.6665754377
H 4.3418387985 0.7625536502 0.8472348918 -0.2705386248 0.1599068578 -0.2190043496
H 3.0537465821 1.5321429212 -0.1140362216 -0.1998179536 0.4338703309 0.0476576399
H 3.6439348311 -1.3690251725 0.4670561978 0.0563095821 -0.1242510411 -0.7447466950
H 3.1656181908 -0.6931680496 -1.1449002097 0.1127822785 -0.0741562607 -0.4837667281
H 1.3729946355 -2.0260876235 -0.2564081828 -0.3430563520 -0.0898047132 0.9456294239
H 1.5740091485 -1.2067768149 1.3915628351 -0.5817643647 -0.2671099476 0.5075449644
H 1.0936971727 0.9666707650 0.0608661970 -0.8501238707 -0.4034447319 0.3969549166
H 0.8428642211 -0.0499009734 -1.3525773101 -0.1253477940 0.2341890523 0.9557953494
H -0.3978894443 -0.9478817968 1.9270493372 0.1042714926 0.6058296562 -0.8325123089
H -2.0518119301 -0.4500367655 1.5587347250 0.5440349050 0.1469596242 -0.5431617441
H -1.4355446544 -1.9145372408 0.7886644361 4.2791233576 46.9549806695 -33.2324094611
H -0.7927663111 -0.5613204271 -2.1063802780 -0.0252523492 0.0992403853 0.2580944064
H -1.6611537406 -1.7093090887 -1.0392560440 0.5922439027 0.0198141844 -0.2553089725
H -3.5690977939 -0.5071496607 -1.0595044119 0.0751284705 0.1789473174 -0.2513267436
H -2.7809036200 0.5144254551 -2.3538880757 -0.3928389579 -0.6641720092 0.3676460952
H -3.3588207127 1.2661287130 0.3877653074 0.2555982073 0.2437013640 -0.2712176456
H -2.6767814524 2.2885219684 -0.9471809236 -0.2578247404 -0.7469063674 0.4063971767
H -0.5034019785 1.9961942661 -0.2446569302 -0.7565971434 -0.5828579884 0.0139166233
H -1.2645100821 1.4284348113 1.2809862893 0.4840754662 -0.0868802883 -0.4083882315
O -5.6916553512 -4.6552402249 0.4967596169 -6.9364871972 -1.3520563131 -3.4646080607
S -4.3945882395 -4.2555794233 1.0890097408 1.8762057912 0.8374205008 -0.8172245222
O -3.9311867101 -5.0903015843 2.2248202501 2.3094914287 -3.5512496423 6.4424388797
N -3.2203282015 -4.2718884698 -0.1692902221 -0.0676648022 1.2453379529 -4.1885267214
S -1.6377351740 -4.0240757915 0.4907485634 -4.8692687662 -6.6883947048 -2.6044244877
O -1.3319088357 -5.0104009173 1.5614112236 1.8147398610 -4.2589347280 6.3349208749
O -0.6676021940 -4.1538765041 -0.6385511884 4.8373229292 0.8589372535 -5.8910092712
F -1.4928712694 -2.4741609147 1.1268448507 -8.4411926972 -60.9054981456 35.9860438290
F -4.5340385619 -2.6605983571 1.6046561354 -0.0893735344 3.3713930360 0.9427769779
39
energy=-47320.8789334904 config_type=IL_pair name=Pyr14-FSI Properties=species:S:1:pos:R:3:forces:R:3
C 3.2994329124 -0.2903174691 0.8660624228 0.7456901780 -1.1474411569 1.6287040000
C 2.9606620299 0.5546132000 -0.3413786963 0.8456760254 1.3919799226 -0.2927821767
C 1.5354570526 0.2384630895 -0.8093481290 1.5436008418 1.2916599913 -2.5175812250
C 0.5963694271 0.5507014048 0.3170281708 5.3747778484 0.4072017780 2.4542832752
N -0.7751536117 0.3105983570 0.0438462541 -1.2004215609 -0.3411935854 1.1795594882
C -1.5575897449 1.4375159461 0.5202909349 -4.8978742089 1.7915851113 1.8736982298
C -1.2736981618 -0.8428297619 0.7859462410 -1.6371335011 -2.9798202745 4.2188872749
C -2.4811721242 -1.3465617663 0.0293038831 -2.2210235610 -0.5464312302 0.9413163056
C -2.2003882884 -0.9553621004 -1.3878221913 -1.2506689575 -2.5534070874 -2.9571547936
C -1.1234431998 0.0931931340 -1.3326465575 -1.1471222457 1.1417443881 -6.2417567687
H 4.3722785570 -0.5959557313 0.8709586655 -0.6851014785 -0.0566919382 0.0179622852
H 2.6256829838 -1.1805385718 0.9195574965 0.8706268528 0.2198502922 -0.0200395797
H 3.1270635032 0.2985870417 1.7769601136 0.0558321079 -0.1398149417 0.2417182877
H 3.7031558634 0.3596890620 -1.1441346246 -0.4816563181 0.2536017751 0.0079422690
H 3.0049777120 1.6398373872 -0.0456338708 0.1873795320 -0.7567005182 -0.5502467919
H 1.3709280206 0.9279705968 -1.6754215562 -0.2954586036 -0.4918548792 0.4029812530
H 1.5378637191 -0.7877788812 -1.1687444387 -0.4336772203 -0.6410297631 -0.0025965378
H 0.9107094780 -0.0776149871 1.1938065152 -0.5237796334 0.6829142601 -0.4616545600
H 0.7599716541 1.6076332109 0.5914646013 -0.3379454241 0.1935495809 0.0442712637
H -2.6083203184 1.2430383433 0.1858272539 0.5847611097 0.4927474023 0.0731062339
H -1.6219191428 1.4523666123 1.6401414027 0.7075359577 0.1272168083 -0.8366956367
H -1.1805275409 2.4025617771 0.1333460326 0.9835710548 2.0132932318 0.5116763242
H -1.6510538811 -0.5120311221 1.7950952419 0.9544727087 -0.1620949065 -0.6260223351
H -0.4997620647 -1.6019573779 0.9572727031 0.2963894796 -0.1828428065 -0.4199337392
H -3.4089798681 -0.8170888773 0.3435987130 0.4427035583 -0.3824875023 0.3497856552
H -2.6328432994 -2.4286143119 0.1719755361 0.0019629133 0.0813124499 -0.0094544708
H -3.1209618782 -0.6211258826 -1.9402537114 0.8002585561 -0.1452869637 0.4797117576
H -1.8146789135 -1.8694074959 -1.9151283048 -0.2607299848 0.7938004166 0.0369335451
H -0.2953312952 -0.2055224326 -1.9900774018 0.2356785948 0.0506710452 0.5274036535
H -1.5587295802 1.0159376068 -1.7933145013 0.6787994027 0.0673467857 0.5173445769
O -0.4791089585 3.8445755787 0.3056692491 1.1360236962 -4.8159369043 7.2784616114
S -0.3824379819 4.3534857467 -1.0922615020 -2.4511307672 1.3371869208 -3.2504401829
O -0.3066337319 5.8456508374 -1.0428906330 1.6231435426 7.0832304192 -0.3870944809
N -1.8095128896 3.9757094341 -2.0095468758 0.3294652510 -2.0142116267 -4.6540702433
S -3.1489098873 4.1793982669 -0.9267853705 1.1891568486 0.4679927759 -1.6346252376
O -2.7410915966 4.0615474014 0.5089449349 1.0561387757 0.6916719266 7.1423115627
O -4.1310406672 3.0791788922 -1.2434395150 -4.5877792762 -4.2209037774 -2.2901732306
F -3.8669661346 5.6604218562 -1.2331597307 -1.3012585395 2.9913310211 -0.6942061373
F 0.9049473997 3.6515246380 -1.8708922029 3.0665177135 -1.9999006378 -2.0855390137
39
energy=-47308.4722557626 config_type=IL_pair name=Pyr14-FSI Properties=species:S:1:pos:R:3:forces:R:3
C 3.9759612197 -0.3179719113 -0.8317322884 2.5456164764 1.0708743876 -0.5735928231
C 2.8836413867 -0.3372366502 0.1888549366 -0.6140614437 0.9676008321 1.4049579848
C 1.5210301010 0.0093309585 -0.4152360317 0.6233677236 -1.4768899399 -0.3792039797
C 0.5320764383 -0.0509892003 0.7257421596 5.2302931775 0.1179901677 2.2100728366
N -0.8156344818 0.2441076011 0.3696726337 1.0581489994 -0.0702003932 1.4293145389
C -1.1332022268 1.6161537316 0.7090098190 0.1340424026 5.3192210911 1.9334960838
C -1.1712361437 0.0032844864 -0.9973576051 -1.0251869459 -2.0415086631 0.8046519470
C -2.7000775025 0.0098492810 -0.9044415320 -4.1414569306 -3.4546359024 15.1480401916
C -2.9260955624 -0.8566442592 0.3072598879 -1.9075775808 -1.1681561124 4.1172607820
C -1.6861370319 -0.6455907568 1.1342300404 -2.3522643721 -3.3770323279 4.0145361679
H 4.9196108048 -0.0715049596 -0.2671773005 -0.4496248089 -0.4204741111 -0.9023304485
H 3.8045745031 0.5108684711 -1.5615167912 0.2336659943 -0.7028717507 0.1918509550
H 4.1026971090 -1.2885158970 -1.3404055186 -0.0906337596 0.2705738093 -0.1510960418
H 2.8503441394 -1.3103937325 0.6686018659 -0.1660293986 -0.6422749617 0.3639638724
H 3.1006612427 0.4037490031 0.9907170984 0.0681702497 -0.2376957912 -0.2148953787
H 1.5436212348 0.9692146974 -0.9277834646 -0.1372251140 0.5638613332 -0.0924306630
H 1.2610395178 -0.7794346469 -1.1663863216 -0.3153056946 0.3357186335 -0.4999928987
H 0.6083657607 -1.0308811539 1.2126485812 -0.1176176317 -0.2452250009 -0.1226889056
H 0.8639838176 0.6939888400 1.4798826493 -0.1957253178 -0.4045241526 0.1273146498
H -1.5247830828 2.2032085578 -0.1359050771 -0.3106772947 -0.3520110160 0.0244236163
H -0.2219471356 2.1786073365 1.0498778447 -0.4673651532 -0.5932973697 -0.3770626817
H -1.8146801556 1.6349681842 1.5852328162 -0.1046125397 0.2150711331 -0.6351095543
H -0.8934285353 -0.9876305620 -1.3555936870 1.2512793443 -0.4164898887 -0.1769387600
H -0.8603487666 0.7739366502 -1.6979361876 1.6720014315 1.0430425445 1.2186689533
H -3.1776281641 -0.3947906589 -1.8237475159 -5.7471514392 -6.2972479898 4.6985724908
H -3.0951334550 1.0180509662 -0.6909877761 -1.1680749180 -0.3129411739 1.8527739149
H -3.8000744540 -0.5299805264 0.9071621302 0.0329562633 -0.2504833119 -0.3400074412
H -3.0788945762 -1.9236304280 0.0657011573 0.2154269435 0.1408677959 -0.1028664156
H -1.8920974297 -0.1246609857 2.0915493356 0.2320542218 -0.6788084743 0.0293139362
H -1.1762085716 -1.6194624367 1.3068723018 0.1337693295 0.6039097184 0.0998050234
O 1.4035740792 -0.0315880248 -4.3465949734 4.4464593689 1.1429745161 -3.5467084833
S 0.1944556939 -0.0840512538 -3.4404527731 -0.7445333266 0.4531196996 -4.4203489165
O 0.3594505001 -1.2820094636 -2.5576688447 0.5278392408 -6.5403441567 5.0267588201
N -1.1867996523 -0.1655610063 -4.4521903342 0.6060034028 -1.1331744257 -3.8862636493
S -2.6316755060 0.2989719328 -3.6712381529 2.8657566389 2.8651414167 -7.5723873823
O -3.7264673365 -0.6669435417 -3.9787867114 -5.0058068252 -4.1831716877 -1.6926128967
O -2.5015694705 0.4063031941 -2.1860295138 4.3725951095 11.9270397123 -18.4861013225
F -3.1455648780 1.7877562624 -4.2564933679 -1.4613255383 3.5432531604 -2.0619568864
F 0.2016564609 1.3504338351 -2.5594168261 0.2733202144 4.4334391566 1.5351809544
39
energy=-47319.8624877904 config_type=IL_pair name=Pyr14-FSI Properties=species:S:1:pos:R:3:forces:R:3
C 3.6874332910 0.5754083102 0.6571180795 1.4024596761 0.2211276811 -0.0785627206
C 2.2711231560 0.6405946665 0.0954579268 0.2832912273 2.5711638287 0.1667464106
C 1.7783597451 -0.7402385994 -0.2581647918 3.5379605248 -0.6469793862 -0.0067281546
C 0.4173878852 -0.8174106274 -0.8180704562 2.3115194793 -3.2278452327 -5.0662713773
N -0.6702105405 -0.3502531837 -0.0361602174 -1.4495394349 0.9653837979 -1.2218791603
C -0.5575699421 -0.4772896821 1.3749758085 0.9577983689 -1.5662089897 6.1196967956
C -1.9088262995 -1.0558116080 -0.4240629745 -2.1707128077 -2.3363382914 -0.3943028928
C -3.0105303116 -0.1819267139 0.1475504362 -2.3513477761 -0.5001224963 -0.4687828261
C -2.4239796594 1.2092974112 0.2398109534 0.9082431534 -2.3157830771 0.7692709706
C -1.0767674635 1.0025789791 -0.4405285952 -1.8001636805 3.9330433405 -1.2648799334
H 4.1790560647 1.5715097512 0.5552621896 -0.2498017904 -0.5260176391 0.2217007167
H 4.2475428373 -0.1410224570 0.0217869328 0.2728441760 0.1231092743 0.6751885834
H 3.6821421746 0.2919599276 1.7290518320 0.2521438234 -0.1983021269 -0.4490070078
H 1.6781969341 1.1299471979 0.8933976802 -0.3725595753 0.0332380625 -0.6292328692
H 2.3469014484 1.2984083518 -0.8082731907 -0.7024351709 -0.3513639658 0.5278647936
H 1.9800029441 -1.3741580646 0.6129660430 -0.5090600393 -0.4653147227 0.1487974951
H 2.5013224998 -1.1145989877 -1.0443194931 -0.9600848415 0.0895810694 0.5199056959
H 0.2225984184 -1.8896598453 -1.0753013426 -0.0257967057 0.4071489940 0.2091804817
H 0.3982682647 -0.2766237394 -1.8056875165 -0.1050768457 -0.2551733950 0.7844391854
H -1.4945563855 -0.8941452342 1.7905731438 0.2349557804 0.3327877507 -0.0505800899
H 0.2203934395 -1.2417853140 1.6210507549 -0.2457693922 0.7554249046 -0.0610972207
H -0.3819571922 0.4791930891 1.9046509405 0.3581782986 -0.1606968606 -0.3651734725
H -1.8616609451 -2.0049519306 0.1051135267 -0.0739957439 -1.0948462585 -0.5748730192
H -1.9775234657 -1.1131443834 -1.5263726678 0.2732118925 -0.3871800475 0.2020709717
H -3.8444547352 -0.2013412046 -0.5768954696 -0.1045016599 -0.0553403544 0.2137966459
H -3.3995781790 -0.5563731886 1.0934849342 -0.1402570826 -0.2592276714 0.3925552750
H -2.3090552020 1.5785760129 1.2726560619 -0.1145559032 0.2304858844 -0.1000597425
H -3.0295335412 1.9507186163 -0.3206824127 0.4782733714 1.1218442392 0.4965507063
H -1.3060279671 0.9266583800 -1.5321855528 0.9240003150 0.3821194790 0.3948375481
H -0.3584972733 1.7758840704 -0.1779098609 0.7762540488 0.2745440987 -0.1753321937
O -2.1690740574 3.7599287601 1.8831311152 0.8078336169 -1.9547510773 6.2267930005
S -2.4665119419 4.3428926732 0.5233507897 2.6928255910 1.3353820632 0.3942386868
O -3.2651993854 3.2807305312 -0.1996246351 -5.6445417404 -0.3540145080 -5.2111716282
N -1.0488959741 4.7595425545 -0.3291788972 -0.6308757780 -0.4247184871 -5.8349508856
S 0.3090841627 5.0678486792 0.6576980738 -1.2160066573 1.3111552590 -1.1507830184
O 0.1405647710 4.7029763486 2.0847041289 -0.2075254027 -3.4018947831 7.6895545966
O 0.5580388247 6.5584540125 0.5979668329 1.7512699535 5.9621699552 -1.4559343093
F 1.7051965113 4.3259865767 0.0882364370 2.6474130412 -2.0443986689 -1.6622372267
F -3.4483979069 5.6918307289 0.7646184626 -1.7882469391 2.4754200898 0.0583704954
39
energy=-47309.0415729310 config_type=IL_pair name=Pyr14-FSI Properties=species:S:1:pos:R:3:forces:R:3
C 3.7547444840 -0.4074810551 0.6459848093 0.7240823417 -0.1407265077 1.4884028924
C 2.6277188831 -0.3070135401 -0.3902251388 0.9107966737 -0.0763870349 0.0003403252
C 1.3390136503 0.1171637074 0.3294085833 1.2611810184 0.7390273505 0.1534631016
C 0.2763145954 0.2002460535 -0.7177262972 5.0226365787 -2.1000774339 -3.8985047459
N -1.0164787535 0.5815558491 -0.2686291845 -2.1961131411 3.3722605773 -2.7425512902
C -1.1194711189 2.0310741087 -0.3911978640 -17.8726802203 -6.9887837148 -8.0330187911
C -1.3815810770 0.2409758896 1.0575412401 -3.3872360097 0.2403485462 5.8640972859
C -1.9980235188 -1.1359288978 1.0260692930 -0.4902221561 -1.8585573558 1.7380975332
C -2.1347028141 -1.4407279391 -0.4434003632 -1.4282614937 -2.4415007438 -1.2019856006
C -1.9923466596 -0.0947683999 -1.1225474398 -2.3538807013 -3.1843739077 -3.1649310459
H 4.4818678662 0.4159231716 0.5513774230 0.0430375702 -0.2327361579 -0.1792821574
H 4.2665588206 -1.3844237603 0.5821040269 0.1166114271 0.3071068453 0.0623045416
H 3.3260995079 -0.3022499527 1.6648568617 0.3090943347 -0.2685370822 -0.2673113510
H 2.9385698329 0.4960872436 -1.0897708743 -0.5230907767 -0.5895693582 -0.3736228993
H 2.5196905035 -1.2945234755 -0.8746307552 -0.1786219653 0.3758778126 -0.3998855496
H 1.0749396906 -0.5792486041 1.1248357419 0.1483279130 -0.1567790193 0.4272100462
H 1.5419699357 1.1525148186 0.6705731267 -0.3629112289 -0.2864772864 0.6406677763
H 0.2462883518 -0.7733623291 -1.2754860445 -0.3022732433 0.4471985285 0.6619648584
H 0.6678468835 0.9312401658 -1.4849314376 -0.8614278425 -0.3952514690 0.6610295971
H -2.1009895229 2.3992096554 -0.0699876160 -0.7605762040 -0.4871550589 -1.0445095328
H -0.3866096473 2.4332441845 0.3526762038 -20.0349466391 -7.7197540650 14.9879488043
H -0.7824810457 2.3628482131 -1.3776822167 -1.4191233526 -0.6019187253 -0.7284586428
H -2.2067773136 0.9437520965 1.3735831890 0.9106817614 -0.2958236677 -0.3838783204
H -0.6197392066 0.3130006715 1.8262082348 0.9013226306 0.3610346978 -0.0657370433
H -1.3318445046 -1.8433216491 1.5653817310 -0.5782754292 -0.0635336801 -0.2588013654
H -3.0142510879 -1.1647681742 1.4519579678 0.3443896383 0.1820926164 0.5995482352
H -3.1149712095 -1.9162489298 -0.7074313729 0.7315618872 0.1725320976 0.2538665534
H -1.3321625261 -2.1284246126 -0.7235041218 0.1195472552 -0.1679402467 -0.5235804853
H -1.5714636321 -0.2832983631 -2.1320664844 -0.3591059844 0.9021282224 0.0709139428
H -2.9577293673 0.4369538538 -1.1533412215 0.2176981135 0.3146614101 -0.0000194753
O 3.1017349376 3.2781695257 1.6318521630 -1.1716618871 -5.6155407937 4.6754902405
S 3.1763837841 4.5562859163 0.8535045957 -0.8590471050 0.7089819431 -1.1316506171
O 4.3927071430 4.5187937466 -0.0393309116 4.9046993934 0.9203616358 -3.7942518921
N 1.8188370396 4.7758367084 -0.1847130986 -0.5033249347 2.8578225567 -3.2592920673
S 0.3717958856 4.1197920988 0.4811651621 6.3509209095 9.8360933453 2.2542912799
O -0.7863576751 4.9394796451 -0.0420857212 -4.4467216464 2.4392330967 -1.6269632874
O 0.2705815096 2.6822168355 0.0437634680 37.3982853345 6.2550619141 -8.4517515067
F 0.3747007947 4.2420751260 2.1381235150 -0.3008762504 0.6276927611 4.9473343826
F 3.3766949015 5.8879935500 1.8553132802 -0.0259645863 2.6078589713 2.0393097260
39
energy=-47320.1548432839 config_type=IL_pair name=Pyr14-FSI Properties=species:S:1:pos:R:3:forces:R:3
C 3.4234592574 0.4843687398 0.6965033109 3.0991946203 2.5922006271 0.9324253414
C 2.9825600177 -0.6806479659 -0.1352988133 0.5081844866 -0.7222582967 -2.1036311256
C 1.4785757391 -0.9426083550 -0.0383763452 1.0081092524 -2.5755514442 1.9411530064
C 0.6923444371 0.2312275444 -0.4969179513 5.2850124727 1.4385996100 -3.0678375755
N -0.7287527288 0.0707746442 -0.4391406130 -0.4954818013 1.3740819683 -0.0638998735
C -1.3452914011 -0.1941934652 -1.7197123158 -2.7063215586 -0.5931180763 -3.0260997731
C -1.1922324127 -0.8922691111 0.5290452631 -1.1660201060 -2.6278612778 3.0448193463
C -2.6405113676 -0.4762470791 0.7695695149 -2.0636156137 -2.5532936493 1.4503919089
C -2.7182254805 0.9961001421 0.4569740229 -1.2017952368 1.5342310496 -0.0720384067
C -1.2735441294 1.3057002904 0.1280074751 -0.4399954551 3.5550110364 2.2315072410
H 4.2804989302 0.1973592988 1.3707054852 -1.0595995577 0.0877249138 -0.1910340728
H 2.6473913756 0.9583599363 1.3012431485 -0.2233837838 -0.1211876734 0.3185029743
H 3.8755179597 1.2951401143 0.0546136313 -0.6490402660 -0.5946854456 0.4625809442
H 3.2270787406 -0.4552970120 -1.2129136479 0.0125329380 -0.6049137754 0.7736059828
H 3.5294404839 -1.5834897853 0.2037872646 -0.3641861575 -0.0055158132 -0.3141842800
H 1.3003954513 -1.1731104946 1.0337223870 -0.0443551557 0.0085877637 -0.1945732013
H 1.2728567030 -1.8746064100 -0.5746165459 -0.4180361428 -0.0372378801 -0.4220423586
H 1.0625260329 1.1335892549 0.0294431668 -0.6255511558 -0.1692199471 0.1193644459
H 0.9448849020 0.3997051594 -1.5815736930 -0.1711509246 0.0971381770 0.7046019286
H -1.2713489286 0.6663537881 -2.4029575411 0.5383403510 -0.0568216824 -0.0641230485
H -2.4296495998 -0.3402463083 -1.5251395181 0.5093091161 -0.1769631214 -0.4050210735
H -0.9330114575 -1.1160579448 -2.1264503707 0.3373826743 -0.3238199159 -0.4728928007
H -1.1212418107 -1.9154566149 0.1492419522 0.5152075151 -0.3964062127 0.2152409570
H -0.6374758778 -0.6914541462 1.4673603841 0.1822420896 -0.8179690720 -0.2546061722
H -3.3418225756 -1.0904162580 0.1622907643 0.1809352437 0.2559968134 0.3590156861
H -2.8600921146 -0.6744140612 1.8448782800 -0.1345065255 -0.0077064221 -0.5950885515
H -3.0353530576 1.5473863375 1.3668502876 -0.1387180779 0.2171225136 -0.7021439315
H -3.3402801185 1.2268220318 -0.4344248613 -0.2324694894 0.0409121854 0.7259611900
H -1.1310824233 2.1484970725 -0.5490053560 0.2985108110 0.4261891873 -0.2829978285
H -0.7176145463 1.4391306571 1.0895835456 -0.1613873823 0.4093532535 -0.6588234735
O 4.4944073238 -1.2092631848 3.8207094511 2.5127964361 6.9715967549 -0.8477297935
S 4.0990889832 -2.6495097002 3.6849426221 -1.9457565444 -0.3484615765 0.0711227086
O 3.8789651637 -3.1765385075 5.0758928325 0.0748575087 -3.1627819164 5.9250590066
N 2.7083238599 -2.8618800308 2.6918390967 -0.5860223544 0.0684755598 -5.4294795607
S 1.3474217711 -2.8276503971 3.7719985522 4.1136005373 -0.4928178297 0.4658304018
O 0.1016213967 -3.1097308929 3.0099290916 -6.7727464871 -0.0528289466 -4.4881906650
O 1.6341374361 -3.8721624288 4.8253233831 -0.0763761142 -3.6680142676 4.9015090399
F 1.3430671750 -1.2868140157 4.4553487349 -0.3610888263 3.2046824655 1.2486102344
F 5.3536084651 -3.5057634566 3.0139033809 2.8732330307 -2.1743281230 -2.2331523188
39
energy=-47320.5939120667 config_type=IL_pair name=Pyr14-FSI Properties=species:S:1:pos:R:3:forces:R:3
C 3.6305355898 -0.0202199656 0.1610723985 3.1679896848 -2.3445236261 0.1416911635
C 2.8248805033 1.1373534711 -0.2897578528 1.0145768089 2.6435584432 -1.1121129715
C 1.3608000527 1.0584468905 0.0188409312 -1.1734664208 3.1373811968 -0.1371294381
C 0.6585160512 -0.1022202137 -0.5830172728 4.8764131461 -2.4874522500 -2.2709630858
N -0.7305129481 -0.1403503330 -0.2653393456 -0.6805018287 -1.4723688268 -1.1684389600
C -1.3762212045 -1.0920480575 -1.1825088911 -0.5856809115 -3.6641871308 -2.0161247274
C -0.9979659536 -0.6749042046 1.0603806714 0.6421256951 -1.8765094029 3.3637035834
C -2.4201766525 -0.2921767748 1.3387484133 -1.3790698390 0.1112484285 3.1308023695
C -2.7614063041 0.8004820421 0.3501492707 -1.8325268115 1.3105633395 0.2143288531
C -1.4476343830 1.0854107233 -0.3857540073 -3.7227349494 4.1362018234 -1.0336911812
H 4.5946852261 0.3460753257 0.5738393049 -0.3273672879 -0.1771446843 -0.0331385283
H 3.1703138398 -0.6243943933 0.9578007809 -0.1384082804 -0.1908568585 -0.1540364112
H 3.9455711597 -0.6601150979 -0.7143864751 -0.6840133142 0.2053478478 1.0107723559
H 3.1944588618 2.0725487319 0.1989443719 -0.2331027254 -0.4461377834 -0.1871058529
H 2.9941904069 1.3065989686 -1.3788385359 -0.3276806523 -0.0803189797 0.3742737255
H 0.9213563155 1.9731665412 -0.4797292328 0.2432211409 -0.6151747333 0.8739658768
H 1.1830878728 1.1220232449 1.1001300265 0.0462018194 -0.0116758786 0.2066874209
H 0.8022739091 -0.1065032241 -1.6931749907 -0.3395391982 0.3078622121 0.4736804104
H 1.0750906806 -1.0912572875 -0.2612335764 -0.0238261500 0.5564273129 0.1347687361
H -2.4726016734 -1.1244314372 -1.0331121553 0.4309596470 0.0479175032 -0.2153358441
H -0.9321975537 -2.0920107387 -0.9408972176 -0.5168139906 0.4385028157 -0.2437853019
H -1.0744399520 -0.8784618935 -2.2140713219 -0.3737076952 0.3975531994 -0.3123430591
H -0.2574981710 -0.2293030362 1.7476854605 -0.1889210784 -0.2872000017 0.2464308472
H -0.9258070485 -1.7644806208 1.0056855700 0.7436934213 -0.3901038176 0.5467246962
H -3.1453797868 -1.1072688943 1.2537400249 0.1935333938 -0.4937685579 0.1931903044
H -2.4340495177 0.0752271426 2.4048338292 -0.4279077173 -0.3721375964 -0.9363007925
H -3.1068427702 1.6675655591 0.9433695316 -0.0500911905 0.1706284115 -0.7275591247
H -3.5536813058 0.4913317363 -0.3574992953 0.0334837927 0.2383320023 0.2929816961
H -1.0287107426 1.9565374139 0.1156585250 1.0496957615 0.1436254487 -0.2287007308
H -1.6906345019 1.2322582461 -1.4515589399 0.6401662132 0.7111506502 -0.0102445129
O 2.5829166536 -2.9187658588 2.4561324588 3.2553417183 1.1744908084 -5.4224057641
S 1.8488758063 -3.4036317372 3.6858429372 -0.8301085999 -2.1229442861 -1.4077453123
O 1.6733083948 -2.2852587612 4.6376994731 -1.1963471690 5.7843678949 6.2356353663
N 0.4168508404 -4.1549141019 3.1696296935 0.3701915314 -3.2786798480 -2.6325842162
S -0.9649483944 -3.8068150257 4.1090657376 1.1571898985 -0.0842591815 -1.1546364057
O -1.9971886455 -4.8756366079 3.8291935815 -3.6772408482 -4.9248151268 -0.5180360005
O -1.5323121792 -2.4822737959 3.6447852175 -1.7903433759 6.0896264680 -1.1114725905
F -0.7011203235 -3.8059119278 5.7443967447 0.9250297321 0.0995673520 4.1635129756
F 2.8618910325 -4.5363610830 4.4107572695 1.7208235216 -2.3730292450 1.4203472176
39
energy=-47320.4375682525 config_type=IL_pair name=Pyr14-FSI Properties=species:S:1:pos:R:3:forces:R:3
C 3.7830079116 0.5966327875 0.6762346735 1.5248207780 0.0797061269 -0.5934159528
C 2.7848111021 -0.5327413030 0.4570129640 0.1058075532 0.8795992593 -0.6036570629
C 1.4562009202 0.1553657599 0.1198490962 0.3721570416 0.2257380662 1.2947915379
C 0.4290005348 -0.9198515077 -0.1072214449 4.1229176978 -3.0350226945 2.5341174428
N -0.8743021662 -0.4173107779 -0.4343232491 -0.1054283385 -1.3460600922 -2.8498356834
C -1.2949462819 -1.1704423144 -1.6257536623 -0.3238871080 -3.2765066769 -2.3025946287
C -0.9016110442 0.9864290596 -0.7756318588 -0.8349164605 4.4954633256 -0.7905846442
C -2.3831126293 1.3239137966 -0.6125662337 -0.0745551751 2.7108680828 -1.0239460571
C -2.6778540220 0.6298998414 0.6955733349 -0.5012892021 1.3940807894 -0.0042594306
C -1.8651189951 -0.6409820378 0.5965770156 -3.4604541989 -2.2075264375 3.4488331973
H 3.5786705567 1.1871657043 1.5717489602 -0.0198083477 0.0473510649 0.3230286131
H 4.7876549848 0.1328207536 0.7285342045 -0.0428601515 0.5773320164 0.1988632376
H 3.7418971577 1.2644833176 -0.2066560631 0.2811180428 -0.0475195685 0.3329199144
H 3.1033098796 -1.0606813193 -0.4562321170 0.0615439687 -0.7064683993 0.4174025001
H 2.7139317583 -1.1472541398 1.3545329521 -0.0700839763 -0.6726238903 0.0569311270
H 1.6432351696 0.7730841523 -0.7691181101 -0.3431380873 0.3172020576 0.1330282886
H 1.1305187437 0.7264969182 1.0213966220 0.3610997918 0.2986936180 -0.7327003047
H 0.8330286592 -1.6633290153 -0.8180309248 -0.5129673260 0.2685008192 -0.3871390247
H 0.3298849893 -1.4779697748 0.8633413676 0.0037296561 0.2823452245 -0.3204032288
H -0.5168142307 -1.0582697821 -2.3918804212 -0.2976941657 0.3981111375 -0.5215174464
H -2.3120580213 -0.9317573286 -1.9487627256 -0.0834050880 0.4531969550 -0.2343609843
H -1.2805359315 -2.2539790076 -1.3518706057 -0.1555640790 0.5215286510 -0.0376338561
H -0.3900526390 1.6094282438 -0.0137672488 0.3000694474 -0.4973811472 -0.4784280651
H -0.5358131169 1.1456734730 -1.7923838376 0.5637312642 0.1308497248 -0.2015682261
H -2.4381336405 2.4394523384 -0.4714024418 -0.4745728641 -0.9178554924 -0.5754244453
H -2.9811988534 0.9766414288 -1.4572261609 -0.2897945957 0.2092297078 -0.3477507708
H -2.2181115264 1.2242404991 1.5117130485 -1.0234775121 0.0313392517 -0.3964100797
H -3.7625078245 0.4510906648 0.8344379027 0.3023092016 0.3204932101 0.2678898968
H -1.3294726079 -0.8650702740 1.5436782315 0.2215395926 -0.5844147946 -0.0175967428
H -2.5535088370 -1.4831801569 0.3088724259 0.9625625727 0.2888383839 0.3189519864
O -4.5951913239 -1.8370565744 2.7652491262 -0.7941192727 -6.8566289122 -1.9972020904
S -4.2419433560 -0.5039650787 3.3500421126 1.3530530958 0.0896668488 0.3369110683
O -5.2735721225 0.4687628101 2.8319694135 -3.7351668260 5.1888463279 -1.5755393219
N -2.6946111794 0.0511631804 2.8478030015 0.7067684101 1.8795624226 -0.6404718532
S -1.4128348891 -0.5366734227 3.8145594174 -2.3389145615 0.9537335151 1.0459796482
O -1.9907413312 -1.4188539894 4.8905607839 -1.9349255096 -4.7196473907 4.1322687267
O -0.6484817605 0.6264488881 4.3917498616 4.0426545768 4.8540950333 1.4706610638
F -0.3280272824 -1.4261733798 2.8820159335 2.3486082481 -2.0441464567 -3.4927536769
F -4.3839705833 -0.6179157219 5.0029758640 -0.2096246209 0.0104704039 3.8072707622
39
energy=-47318.2683800430 config_type=IL_pair name=Pyr14-FSI Properties=species:S:1:pos:R:3:forces:R:3
C 3.9959516415 -0.4267749660 -0.9613952313 5.1655206470 0.1624247997 -0.5637764865
C 2.8790665654 0.2599155688 -0.2558962692 -1.6031098361 1.0138085846 0.4271838866
C 1.5292053868 -0.4251734881 -0.4813071973 -3.3553685169 4.8659007734 -0.6929554775
C 0.5327245139 0.3978734389 0.2978110624 5.3619944678 2.4129928083 0.4178156221
N -0.8163231376 -0.0562153251 0.2366182991 -1.1193420413 0.3623691089 1.1292789786
C -1.0830683571 -1.0753447787 1.2304519455 -0.7082477669 -0.7945929691 6.5960272869
C -1.6437947953 1.0985484656 0.6219691563 -0.4242876156 5.1476532333 1.0031522032
C -2.8287625323 1.1058638846 -0.2792116294 -4.0172986983 2.4759319368 0.4083388499
C -2.7869975683 -0.1998574544 -1.0076505857 -0.7299882045 -0.3780387548 -1.5563134058
C -1.2785512499 -0.4620564970 -1.0547826425 -2.6700370134 -0.9266766143 -5.7744661013
H 4.8895629076 -0.4152488116 -0.2708260777 -0.5943952680 -0.0439153840 -0.6820812228
H 3.8211475030 -1.4950569406 -1.1955264022 -0.4662478066 0.7320917061 0.0955546918
H 4.3474941942 0.1243762345 -1.8594302383 -0.4348281627 -0.1642520798 0.1550035169
H 3.0180017441 0.2958443052 0.8447374875 0.3591180498 0.2255320119 -0.3163430419
H 2.7912991662 1.2928535216 -0.6556578613 0.1922455089 0.0019776074 0.5543340391
H 1.5414292875 -1.4779734125 -0.1926423297 -0.6068112412 0.3597072742 0.3763277287
H 1.2280348101 -0.3797545358 -1.5515286801 0.4381932351 -0.0292515605 0.3877551569
H 0.8343510187 0.4041401432 1.3718999940 -0.2662152725 0.3144091258 -0.3812090718
H 0.5504934387 1.4329948845 -0.0972839607 -0.1548419708 0.0556429012 0.3446659306
H -0.2739949028 -1.8042782218 1.3364595040 -0.0251348661 -0.2479706863 -0.3559722851
H -1.1308477620 -0.5314651937 2.2121447675 -0.2101665303 -0.1439334253 -0.5163583929
H -2.0449909595 -1.5659218805 1.0964087379 -0.2377844182 -0.2039747432 -0.2610023867
H -1.0881789971 2.0630925388 0.4412742004 -0.0835343905 -1.0168192528 0.2562410531
H -1.8836044394 1.1045605066 1.6887779873 -0.0535368930 -0.3753094982 0.2442513392
H -3.7480479613 1.2139974437 0.3669159467 0.5426910663 -0.0238892661 -0.8656477634
H -2.8259901983 1.9779686151 -0.9938509805 0.1647332701 -0.7811382304 0.6585715527
H -3.2731400553 -0.9967889849 -0.4374768313 -0.4612670130 -0.1985131095 -0.1923848155
H -3.2183746164 -0.0782669793 -2.0293640596 0.1523193837 -0.6004237518 0.5758127386
H -0.8642323529 0.1603685621 -1.8617562593 0.5174353171 0.0282747408 0.2283725133
H -1.1698622920 -1.5422206432 -1.2572340099 1.4891967111 -0.1605319318 0.8372661570
O -0.5826938289 -4.9085592488 0.5673449958 -2.1893617618 -3.7987013361 3.9088633442
S -0.2962402964 -3.9609856643 -0.5783918645 2.1360436607 -3.3603838854 -0.9598871711
O -0.2533061832 -2.5449560702 -0.0743619146 0.2812152120 4.9091734105 -0.1989286791
N 1.2380329339 -4.4458306059 -1.2182667769 0.3228022986 -3.0409114011 -3.7418951776
S 2.4919758829 -3.6904024222 -0.3236474574 -2.4474450054 -4.2856028116 0.0326158395
O 3.7952460576 -4.2472750875 -0.7777074161 6.2784153640 -3.6055772554 -1.5759009615
O 2.4637484807 -2.2244609523 -0.5838789202 1.8741861783 1.5977911040 -0.7462472351
F 2.2155536613 -3.9623814763 1.3076557178 -0.4793509100 -0.3609848730 3.1419269485
F -1.4134881547 -4.1443991125 -1.8166790257 -1.9364125026 -0.1261711512 -2.4149028137
39
energy=-47321.0559354617 config_type=IL_pair name=Pyr14-FSI Properties=species:S:1:pos:R:3:forces:R:3
C 3.5702506755 0.7751389952 -0.9575558978 -0.2690065004 -0.1081651883 -0.4006122372
C 2.2140136243 0.8421047954 -0.2152873265 1.4855640749 1.2320089059 0.0073010472
C 1.8270155873 -0.5152762374 0.2805119254 3.6635985579 -2.4447119351 -0.9179988167
C 0.5707233580 -0.6487832254 1.0326167916 4.2172346096 -2.6618817629 5.5472281244
N -0.6700771157 -0.3401254440 0.4592655223 -1.6957487061 -1.0658846963 0.4056895060
C -1.6719125687 -1.1593092123 1.2053546840 -1.5018063280 -3.5796956381 2.4544098864
C -0.8856567907 -0.6624680831 -0.9147778396 -1.7277840883 -2.1235627650 -5.0739574705
C -2.3657666263 -0.2581704113 -1.0484206079 -1.2980970903 -1.5861134801 -1.8988202987
C -2.4636764900 0.9835665379 -0.2087340215 -1.3220219531 2.9368774577 -1.1634133990
C -1.1548421730 1.0035727758 0.5779268494 -1.6992643780 5.5861152687 0.8252689989
H 3.9662278631 1.7987897885 -1.0005028508 0.4609459124 -0.1432245105 -0.0433249407
H 4.2555732793 0.0724735315 -0.4384071963 -0.0400000052 0.4909586890 -0.3333115608
H 3.3685579939 0.4406957760 -1.9821694684 0.4550672038 -0.2511432467 -0.1935596960
H 2.4379724692 1.5051654831 0.6409153407 -1.0256694212 0.1716517956 -0.0457531339
H 1.4669493476 1.2257365849 -0.9002834222 -0.4893738809 0.8108049229 -0.1295191056
H 1.9366942811 -1.2996148166 -0.5245625930 -0.5071031001 0.8148723047 0.3735006414
H 2.6586532270 -0.8036724351 1.0006128454 -1.1210584812 0.1039073631 -0.4749088405
H 0.6735161821 -0.0556083855 1.9777181780 -0.4137916718 -0.1306601967 -0.3962564627
H 0.5235077019 -1.7284712870 1.3938221383 0.0295575597 1.1484667174 -0.5809171113
H -1.2915433620 -1.3950391559 2.2209595990 -0.2010484456 0.7221487906 -0.1515378517
H -1.8104767969 -2.1419622037 0.6966188700 0.1707517332 0.5370370090 0.0559028300
H -2.6251546056 -0.6321841526 1.3112732938 -0.6845763592 0.1971623140 0.7543984268
H -0.7877262501 -1.7478184165 -1.1378532452 0.6222604073 0.4391861447 0.1679770002
H -0.3563923942 -0.0315451675 -1.6237643170 1.1786474680 0.1664325617 0.0076312900
H -2.9869719131 -1.0781747267 -0.6454510965 -0.1765728034 0.3168146056 -0.6761325934
H -2.6203420878 -0.0622128304 -2.1048227723 -0.0671509777 -0.2732037395 0.1576746910
H -3.3533925012 1.0475916862 0.4305494242 -0.2232229701 -0.3733712067 0.4104851501
H -2.5342031868 1.8616305382 -0.9146760796 0.2704282050 -0.5401473524 0.9187591061
H -0.5487100206 1.7867176834 0.1168846364 1.1578528841 -0.3294326128 0.0769967580
H -1.3428107077 1.2172520149 1.6531164416 0.1169751795 -0.2824869383 1.4530471581
O -4.1329347510 0.1825214039 2.5853180101 -2.3769320552 -1.1984047087 -6.4393003916
S -3.4023980814 0.6590568597 3.8212034018 2.3497569802 0.4647335764 0.9342764076
O -3.7459829219 -0.1787078462 5.0140115006 -1.8733946429 -3.2757306799 5.5235758686
N -1.7127587565 0.6139705493 3.4756255891 1.5373590074 -0.6250511345 -5.4539081882
S -0.7458588340 0.8581145192 4.8689756016 -1.2346338379 1.2903248635 -0.8782787464
O -0.2515013371 2.2874274300 4.8188620896 2.9234797144 5.3191917427 -0.6548959766
O -1.5779839975 0.5957999059 6.0849984470 -3.0606350608 -2.1120664453 5.9772487756
F 0.6223228662 -0.0917832257 4.8714586951 3.1124600286 -2.7148571875 -0.5250513112
F -3.9193980999 2.2198576983 4.1716883887 -0.7377908030 3.0741797411 0.3880477699
39
energy=-47320.0220356954 config_type=IL_pair name=Pyr14-FSI Properties=species:S:1:pos:R:3:forces:R:3
C 4.0098192946 -0.7111657031 0.2611394061 2.2420885064 -1.6612181429 0.8770479393
C 2.9263595187 0.3000948389 0.0545445456 -0.5019202083 1.6054486778 -1.1161758787
C 1.5379993171 -0.3118016426 0.2792592269 0.9761090733 -1.7417465958 -0.4746504438
C 0.5228226854 0.7563738538 0.0547376333 5.2262500379 4.0182235391 -0.8323726969
N -0.8414106897 0.3842430263 0.2167774276 -0.2706571025 0.9754359499 -2.0759058769
C -1.5218110466 1.2338270685 1.1790124406 -0.2861658971 3.8594282456 -1.3326046027
C -1.1048530220 -0.9720492604 0.5544235742 -1.4118199867 -5.5646738380 2.1664003166
C -2.5761124643 -1.1475717516 0.1676874872 -1.9536091527 -1.2086477581 -0.1083575614
C -2.8829563993 0.0096864620 -0.7871981668 -2.0128890294 -0.1328272962 -1.3407508583
C -1.4934648657 0.5276349618 -1.0854441599 -1.6008357944 -0.0325720553 -3.3152755202
H 4.8521559319 -0.2444332286 0.8127289614 -0.2575471387 -0.2803843778 -0.0147339165
H 4.4571304194 -1.0629490171 -0.6921741194 -0.4766015591 -0.2456118533 0.3349115375
H 3.6311846649 -1.5687954247 0.8765124883 0.5549133294 0.4390274306 -0.5935933068
H 3.0859423439 1.1544438182 0.7437650610 -0.2036243110 0.0039887368 -0.0588545190
H 2.9682698943 0.6409440693 -1.0116775425 -0.0320706637 0.3106272407 0.7598303730
H 1.4732359476 -0.7261704326 1.2886894419 -0.0890423424 -0.1143519629 0.3632710946
H 1.4329229818 -1.1261046322 -0.4755789114 -0.1154968711 0.1589672858 0.4972147087
H 0.7381131413 1.6040656059 0.7580487281 -0.1634120960 -0.7184657115 0.1090888985
H 0.7452136131 1.1887122431 -0.9620098315 -0.8246798221 -0.4366232506 0.5750797312
H -2.4831082932 0.7706136726 1.4249915502 0.3038903829 0.3478533303 0.0872590734
H -1.6404498537 2.2294370740 0.6913651041 -0.3264960266 -0.3820029438 0.1605902989
H -0.8699113892 1.3762599297 2.0669566138 -0.3649334334 0.0921324775 -0.9949072140
H -0.5379074291 -1.7158197961 -0.0353289998 0.5193714725 0.5351264325 0.3280747501
H -1.0531341174 -1.1648188567 1.6493355190 0.8787404953 0.2004813027 -0.2647035154
H -2.7402356377 -2.0905205057 -0.3879603363 0.0704495830 -0.0482032709 0.6114949913
H -3.2443660517 -1.0885396075 1.0466420335 0.1434062447 -0.4485944058 -0.1751411067
H -3.5458380218 0.7566553079 -0.3194086492 0.1627024719 0.0387460440 -0.2922279367
H -3.3698310234 -0.3639070328 -1.7114006282 0.0759740079 0.2857060475 0.2544803244
H -1.4688809489 1.5668398637 -1.4402314173 0.3587554819 0.0842640974 -0.1452140652
H -1.0068985004 -0.2051849043 -1.7590967134 0.1680341026 0.6031735148 -0.3663473812
O 2.5276533505 0.5617379120 4.9763513436 1.7121635129 -4.7514273416 3.1935219574
S 2.1733791738 1.6412219666 3.9783930093 -1.0709276362 -0.4250606013 0.7362836407
O 2.0597590353 2.9901192795 4.6427995014 -0.2062743455 5.8867069377 1.7765645681
N 0.7771007679 1.2597309105 3.0709375987 -0.7717676574 -0.4088464202 -5.5710947745
S -0.5495371681 0.7390522591 4.0135290121 2.8409637063 0.0557510434 1.2792103568
O -1.7957618932 1.1119005773 3.2410060666 -5.7108422937 0.5791065446 0.9865081514
O -0.5959810742 1.3404639460 5.3787464008 0.2829392717 2.0461752809 6.8873316951
F -0.5176217002 -0.9301915654 4.1390468745 0.0841037168 -3.5553127659 -0.1147197014
F 3.4470336645 1.7362891312 2.8766675312 2.0486206400 0.0350952548 -2.7951773504
39
energy=-47280.4655081124 config_type=IL_pair name=Pyr14-FSI Properties=species:S:1:pos:R:3:forces:R:3
C 4.0497872162 -0.7085407178 -0.0109665002 2.8504469709 -0.6607481765 0.5397314295
C 2.8306545959 0.1359106001 0.1652369775 -1.1149636843 1.8826794420 -1.0542579334
C 1.5342942403 -0.6013176158 -0.1631489100 0.3060284306 -1.4314227806 1.4642868959
C 0.4331688790 0.4250248139 0.0791705203 5.9294469508 2.0210032340 0.6714561745
N -0.8686362459 -0.0856896694 -0.1782734811 -0.6080141921 -0.5616021608 -0.7471235041
C -0.8820170584 -1.2946171994 -0.9706008367 -11.1066466434 -12.0253742756 19.5191938150
C -1.5813477262 -0.2374647416 1.0501257865 -4.1208970845 -1.6053377728 5.3805241367
C -2.6045757343 0.8984217720 1.1265602677 -0.9138458162 0.4964311870 0.1839530240
C -2.9668595091 1.0270603286 -0.3528504991 -0.6481107572 0.4658865757 0.1972809521
C -1.5873530578 0.9123740578 -0.9683973995 2.0569987397 8.9126257187 2.2495753327
H 3.8427839682 -1.7168170462 -0.4113860565 0.0661657636 0.2387367576 0.0431654254
H 4.5579453050 -0.7994003343 0.9759890313 -0.1250732241 -0.4058349221 -0.5155708706
H 4.7783544149 -0.1844499892 -0.6653915573 -0.2444978735 -0.4898359622 0.0416456385
H 2.7491138335 0.5486627125 1.1815311847 0.1737618381 0.1307513341 0.0283138816
H 2.8550105289 0.9880873742 -0.5697155672 0.1793574046 -0.3555032722 0.8235770963
H 1.5569761640 -0.9771687172 -1.1904315927 0.0304311767 0.0667212027 -0.1132304327
H 1.3840550608 -1.4669847439 0.5350453921 0.2532988567 0.4493704291 -0.5552474211
H 0.5817849745 0.7817906874 1.1309843537 -0.6996124095 -0.0272377665 -0.7092784596
H 0.6822546277 1.2717590849 -0.5969430963 -0.4250187181 -0.1712108763 0.2488677105
H -0.4209522367 -2.1632447734 -0.5044130855 -0.1379715468 0.2024849145 1.1811302357
H -1.9453770115 -1.5444402516 -1.1626416927 0.4815667883 0.1608738171 0.5333143842
H -0.4202030397 -1.0340539767 -1.9540911647 -82.0252049443 -112.7649457303 152.5770958766
H -2.1888099703 -1.1770047505 0.9631289987 0.7453368140 0.3866843110 0.3994901031
H -0.9625227844 -0.2471417281 1.9540537740 0.4842214285 -0.4702911926 -0.0309160610
H -3.4996429919 0.6267296382 1.7113472295 0.3958827167 0.2106855509 0.4481975285
H -2.1453658866 1.8515743795 1.4297337869 -0.1190016092 -0.0985042658 0.5784859940
H -3.4134272436 2.0143579827 -0.5461016855 -0.2648056697 -0.2539729536 -0.3942350770
H -3.6026237415 0.1899947539 -0.6637395899 -0.4443099601 0.1874378068 -0.0888010932
H -1.1082498711 1.9207649179 -0.8186760524 -0.1792510510 -0.7616152659 0.5411440537
H -1.6382196998 0.6458231515 -2.0378008099 1.8111494771 1.0515387418 2.7809958151
O -2.9251751728 2.0371589316 -3.9233818340 -1.6409454761 5.9611664806 1.5831524344
S -2.3583329845 0.6347797260 -3.9333145311 -0.5637439563 1.0383634454 -5.5577891410
O -3.2366589380 -0.1554730695 -4.8795202711 -3.2559485473 -4.3595950621 -2.9386083441
N -0.7969979652 0.6898765012 -4.5885021225 1.2741876509 1.8267270411 -1.7574993259
S 0.3813604171 -0.2259911396 -3.7591846438 2.1650230166 3.2806320511 -8.4788394147
O 0.8252387998 -1.3653486186 -4.6468600380 1.2846841649 -5.3526747289 -2.8830691579
O 1.5402113617 0.7137020509 -3.5056247225 4.3736413265 3.7213705409 2.2530508474
F -0.2269012990 -0.7771825981 -2.3160041172 89.2804457306 116.8132500454 -166.4609020459
F -2.4568150334 -0.0700181855 -2.4305504084 -5.5015685384 -7.7148689891 -1.9790806206
39
energy=-47318.7000977181 config_type=IL_pair name=Pyr14-FSI Properties=species:S:1:pos:R:3:forces:R:3
C 4.0900864893 -0.4504339581 0.2486288264 3.8228208941 -0.5138548503 -0.7057168586
C 2.8827907695 0.3824504554 -0.0344220456 -0.4066263321 2.0093975279 0.7778457577
C 1.6017563999 -0.4665677091 -0.0341797731 1.5401738215 -1.2227270318 -0.4485702350
C 0.5038836662 0.5005852964 -0.3279413118 3.8707521445 2.3047072109 0.3493363972
N -0.8214493307 -0.0181419163 -0.3902056321 -0.3265005943 1.4936447595 -1.0890102809
C -1.0505335307 -0.9479152664 -1.4524741629 0.0133780592 -3.8642128581 -2.3184018721
C -1.6393376694 1.1947081173 -0.5900728851 -0.6594796152 4.0519217499 -0.2120339863
C -3.0443743642 0.7408137442 -0.4035139214 -1.8053261263 0.3399339328 -0.9175419130
C -2.8825841436 -0.2635906963 0.7194737931 2.6467204440 -6.7793793531 -4.3364193051
C -1.3663218913 -0.4509131994 0.8624045336 -2.4224837189 -2.9061992188 4.1505845963
H 3.8964120037 -1.3752629401 0.7955578777 -0.2550567422 -0.2861523703 0.0348346932
H 4.8646543776 0.1066869881 0.8336304654 -0.6601135586 -0.1992874351 -0.2013454476
H 4.6193714562 -0.6813158834 -0.7197468992 -0.5595678710 -0.3425348854 0.8725474881
H 2.9962263250 0.8988371959 -1.0071333110 -0.1098384045 -0.1223492084 0.1229126858
H 2.8347175601 1.1907095055 0.7411300156 -0.4317813895 -0.4860822679 -0.4142300922
H 1.7498469677 -1.2130153324 -0.8362425470 -0.4143982065 -0.1010373258 0.1130206526
H 1.5028792115 -0.9950057328 0.9217365061 -0.2427597191 0.0429769518 0.2032733863
H 0.5038185073 1.2589477967 0.4995280686 0.0021063752 -0.2141179499 -0.5387720049
H 0.7283576016 0.9829290091 -1.3029510143 -0.1791621006 0.1263916423 0.3227234858
H -0.7264282651 -0.5154484319 -2.4016954545 -0.1671984110 0.1568383575 -0.4253161453
H -2.1105351003 -1.2483395086 -1.4342271270 0.1419378372 0.1414641089 -0.3267654170
H -0.4467316722 -1.8520806063 -1.2434873746 -0.0582142964 0.0615523302 -0.2067232834
H -1.4052086285 1.7243180870 -1.5084924654 0.2600089159 -0.1142957736 -0.8655970835
H -1.3201989314 1.8429799299 0.2786507461 -0.5750198134 0.2167847024 0.3677135406
H -3.4243838495 0.3089610813 -1.3341869673 -0.3284548074 -0.1247118049 -0.2762706982
H -3.7137895320 1.5843361103 -0.1535117792 0.1995371378 -0.0086574608 0.0196406317
H -3.2555330583 0.2405630411 1.6361067277 3.4891845561 -6.4016535888 -2.0709758867
H -3.4004927350 -1.2101699724 0.5036940969 0.2483000292 0.0125912174 -0.1871817496
H -1.1659229266 -1.5076422832 1.0964266579 0.7258698096 0.0319815388 -0.0837975278
H -1.0009757068 0.2380170785 1.6530840409 0.3416744927 0.3577172723 -0.0331554610
O -3.5731944938 3.5640671613 2.0956205461 -2.9090951920 4.2022124381 -3.1668604670
S -2.9457913703 2.3074640438 2.6603286793 2.8791694815 3.8021020438 0.6036381668
O -3.0729838780 2.2795641074 4.1474010024 -1.1431709934 -1.4411535540 6.9917208606
N -1.3199237701 2.2424495854 2.1147454646 1.0059941905 -1.9012855917 -5.0616129490
S -0.1842360297 2.7066855394 3.3142174042 -0.8819509936 0.2291358364 -0.2901661639
O -0.7079840190 2.4358367877 4.6925336561 -2.4078421656 -0.1238532577 6.3931708936
O 1.0527373724 1.8675062512 3.0886906570 5.4536643942 -2.7217042390 -2.3514775533
F 0.2027447303 4.3417735543 3.2131781637 0.5364832754 2.9477158935 -0.5906356126
F -3.7486499826 1.0044448664 1.9577982717 -10.2293766752 7.3446148491 5.8019045257
39
energy=-47284.5910887745 config_type=IL_pair name=Pyr14-FSI Properties=species:S:1:pos:R:3:forces:R:3
C 3.9775181116 0.2793455667 0.2286673269 1.0328228042 -0.6472012866 0.9778302759
C 2.6205487601 0.7715972385 -0.2435700364 0.5438123517 0.8693432326 -0.0438512396
C 1.5634508909 -0.2127316208 0.2371359430 0.3657803863 0.1074575039 -1.2496637515
C 0.2409982170 0.3462775845 -0.2721687662 3.6968410255 2.6697878348 -2.7491209777
N -0.8872711964 -0.4684919511 0.0952152937 1.9418240479 -0.6240223112 -1.2830983380
C -0.4326921915 -1.7881322328 0.4311919769 1.1594700845 -5.4999096543 1.1291416243
C -1.9118305331 -0.5590781560 -0.8999824300 -3.4768525342 -2.0907804839 -5.7794651326
C -3.0062459959 0.4084599257 -0.5464729061 -2.2817424226 1.3030940964 0.6999418405
C -2.3379041382 1.2544586253 0.5322595279 -0.5687984167 2.0065917103 -1.5251777542
C -1.5360657045 0.1824675401 1.2206058648 25.8398636253 30.8780323954 -26.0064229221
H 4.7220097774 1.0983253422 0.1391960383 0.0695415631 -0.6676998728 -0.0722778975
H 4.2245475134 -0.6148141072 -0.3811794549 0.5192586427 0.4752733387 0.1994857347
H 3.9250425699 -0.0690053241 1.2975169067 0.1773133679 0.5109674995 -0.8004883215
H 2.4016245098 1.7643822267 0.1994895583 0.0585546154 -0.0890260383 -0.3880313254
H 2.6606417846 0.8333837271 -1.3483093286 -0.3843444189 0.2451978896 0.2031463814
H 1.5570475066 -0.1825300560 1.3267047939 0.1427906359 -0.5137470967 0.4497592525
H 1.7704323813 -1.2138042415 -0.1981490600 0.1427171613 0.4444040863 0.5961882881
H 0.2638712435 0.4943248970 -1.3805953802 0.1195485566 -0.2302921822 0.4475711067
H 0.1739679143 1.3618406682 0.1691382232 -0.5705594299 -0.2053535979 -0.0756630761
H 0.2997344601 -1.8093391414 1.2559035781 -0.2910417161 0.1819887855 -0.1201666968
H 0.0215806279 -2.2279300959 -0.4712705196 -0.0222976581 -0.1640217369 0.1248030184
H -1.2660628323 -2.4505766558 0.7491643297 -0.1281811906 0.3469072635 0.1475515985
H -1.5221154562 -0.3932325418 -1.9390600725 0.1308238156 0.0214391136 0.8306697553
H -2.3882959057 -1.5757356842 -0.9388731748 0.8277014575 0.2593294041 0.2637937205
H -3.3465732813 1.0273546902 -1.3849964724 -0.2315498451 -0.2756227363 -0.2662659613
H -3.8667120394 -0.0832230109 -0.0281823916 0.1210675994 -0.1524556689 -0.7789163537
H -3.0662695233 1.7653754476 1.1775207546 0.1307745153 -0.1985321009 0.2916792855
H -1.7501132458 2.0233742685 0.0229690147 0.4244542158 0.5789420435 0.0875890498
H -2.2580470432 -0.5250480473 1.6680633222 -53.4875862345 -64.6724229513 -80.0256869842
H -0.8468171813 0.5627051183 1.9758651888 6.3082539350 3.5832914046 -2.9348047106
O -6.8176128465 -1.1937756248 2.4200610474 -4.3520920756 3.3809537303 -3.1471198853
S -5.6078774023 -1.7171334252 3.1627901375 0.6689853929 0.0188549714 -2.2299384923
O -5.9827716299 -3.0719849198 3.6644387233 -0.8322390231 -6.7238939283 3.6055950023
N -4.2230777039 -1.7495726466 2.1557422777 -0.8411363397 -1.3392706663 -2.9836458217
S -2.7823601486 -1.2656046379 2.9306612315 -16.4578486728 -15.3584424146 17.0261620576
O -1.8672392982 -2.4614786648 3.0289168654 3.8161215705 -5.0729627560 0.6600922981
O -2.0411632667 -0.2375180040 2.1053445331 35.8424106703 53.1709009706 95.1054617978
F -3.0071742856 -0.5938437507 4.4282130687 -0.9446355027 0.8793875665 6.4521028193
F -5.3419387287 -0.6811111647 4.4349187998 0.7782134019 2.5908013726 3.1559712696
39
energy=-47320.7728090245 config_type=IL_pair name=Pyr14-FSI Properties=species:S:1:pos:R:3:forces:R:3
C 3.6804372431 0.2931698743 0.3630820702 1.1680139551 -0.3176752842 0.2383542968
C 2.3172467228 0.2367040767 -0.3350330473 0.6268487692 1.1953279897 0.0234580729
C 1.5772974393 -1.0237707732 0.0406434659 2.6757542333 -1.9402589873 0.8678805390
C 0.2410600047 -1.1741607191 -0.5827941165 1.8691440457 -3.8965755750 -2.7608021232
N -0.7252104341 -0.1517064857 -0.2777416173 0.4082797019 -0.6787017238 -0.4721377800
C -0.6053354078 1.0242105145 -1.0803142892 1.2062991947 4.8544949000 -4.9459639023
C -0.8060028734 0.1659912202 1.1173122112 -0.2511000175 0.8882139739 5.2070586475
C -2.1984394356 0.7468930355 1.2603125212 -1.6564166486 1.0159340508 2.1160142078
C -2.9704826137 0.2179154066 0.0709256470 -3.3144339826 1.3487688281 -0.6115663398
C -2.0262127378 -0.7511409755 -0.5322918210 -3.1820444494 -3.8593896870 -0.7117979434
H 4.3610915555 0.8800377166 -0.2646961851 0.2785793300 0.0990284434 0.0448055066
H 4.1059294197 -0.7322587687 0.4665102248 -0.1036662076 0.6266807957 0.1606237164
H 3.6179077893 0.8002848375 1.3431293958 0.0125161934 -0.4187510673 -0.0655700755
H 2.5070095331 0.2340717781 -1.4270880663 -0.4786544952 0.4008907950 0.1700666213
H 1.7798526781 1.1299990994 0.0199094051 -0.1890876371 0.1226438055 -0.6927825069
H 2.2171220766 -1.8630303006 -0.3638694186 -0.8046962713 0.4495913791 0.3224754680
H 1.5882577838 -1.1943561261 1.1348518841 -0.4322061523 0.2260018825 -0.1215795737
H 0.3408212705 -1.1761374445 -1.6976099420 -0.0408970626 -0.0922180559 0.4998762483
H -0.1996628404 -2.1540379563 -0.3104547848 0.1230585799 0.1833463577 0.2066053305
H -0.4163508640 1.9443250190 -0.4901997053 -0.1807108882 -0.4016841611 -0.0015702229
H -1.5232137872 1.1824755619 -1.7204237533 0.8640763566 -0.0943567318 0.7943625474
H 0.2527873634 0.9217373003 -1.8094644130 -0.7807189080 0.0603572280 0.8018719371
H -0.7732259496 -0.7744643657 1.7080520296 0.5796389882 -1.0355000627 0.4182416603
H -0.0809227802 0.8957330553 1.4895536579 0.7644074673 -0.1756118612 -0.3575049327
H -2.7017316115 0.3407913766 2.1703482518 0.5955794113 0.6189601973 -0.1008001272
H -2.1907332347 1.8519466580 1.2662519658 -0.0761082750 -0.2014796740 0.3028963171
H -3.2247653097 1.0339507681 -0.6371447666 -0.0198742539 -0.2886823216 0.1778208722
H -3.9321552230 -0.2472103486 0.3732745579 0.4111056412 -0.0491677915 -0.1715788607
H -2.0214903670 -1.6962927150 0.0823891403 -0.3592315427 0.4875849722 -0.7530484904
H -2.1908854103 -0.9616703196 -1.6053928947 0.2866291306 -0.1142189247 0.0963612707
O -0.4718784574 -2.4985539574 5.0245117376 -0.5719951858 4.8500675824 4.2847549881
S -0.5192779267 -3.4008788174 3.8136012408 -1.5558348617 -1.6368044893 2.0606689161
O 0.7846105172 -4.1699715561 3.7967565887 4.9927002305 -3.3679848327 -1.4097349919
N -1.7852677303 -4.5375598988 3.9171950537 1.1048058022 -3.9997364820 0.9259720161
S -3.3241682230 -3.9716649738 3.5047973984 0.6244683908 -2.0793716532 1.0043119587
O -3.9553990719 -4.9317213488 2.5226871835 -2.7316145411 -4.6099394771 -3.2440563288
O -3.3715955113 -2.6124041643 2.9177394200 0.0551293626 8.4091058088 -2.3734947666
F -4.3068165009 -4.0060439530 4.8720143380 -1.5643891933 0.0058015454 2.7944458396
F -0.5479724421 -2.4909418514 2.4204170997 -0.3537733255 3.4116865997 -4.7174298224
39
energy=-47319.7708052090 config_type=IL_pair name=Pyr14-FSI Properties=species:S:1:pos:R:3:forces:R:3
C 3.8987235884 -0.2350246290 -0.7405312607 1.9311063042 -0.2420218744 -0.8318344944
C 2.7217556451 -0.2050809626 0.1919229434 -0.0550896459 -0.2741597302 0.9878355305
C 1.4235616556 0.1623656284 -0.5121752932 0.6773949763 1.4332486203 -1.1626731382
C 0.3714520557 0.1449586006 0.5520619980 4.2136819458 0.5779138870 2.5288365786
N -0.9486559134 0.4682807473 0.0963056831 -0.7460716278 -0.1444386180 1.6914880395
C -1.0289262873 1.8495336509 -0.2931647034 -2.0179953150 3.6050172108 2.1799650798
C -1.8374770767 0.2723728732 1.2397887483 -2.5078900244 -1.3022897133 2.9791700491
C -2.1704695203 -1.2015380105 1.1043302817 -1.3625666668 -1.3427981668 0.5329456981
C -2.5879296604 -1.1925482525 -0.3636331989 -0.8611776675 -0.5388856283 0.5970006493
C -1.4238735916 -0.4037153651 -0.9491749847 -2.0650986591 -3.0324307484 -4.6635707584
H 4.7978184018 -0.3588158200 -0.0997881696 -0.0451934315 -0.2218560775 -0.5747550228
H 4.0201660342 0.7334106531 -1.2681185887 -0.2205340331 -0.3174143921 -0.0374768436
H 3.8267776850 -1.0841856194 -1.4689829176 0.1682002800 0.7230982042 0.4182383045
H 2.6008177743 -1.2056524741 0.6510178046 0.0782856243 0.1705729336 0.1717236130
H 2.9346367239 0.5315484207 0.9914789006 -0.2101334678 -0.2062729453 -0.0287049155
H 1.4828687305 1.2012854916 -0.8988904506 0.4158893632 0.0290805741 -0.1370619446
H 1.2466922990 -0.4850211940 -1.3695347580 -0.2460374285 -0.5352656759 -0.1733964851
H 0.4571944728 -0.7833340885 1.1212721998 -0.7548542001 -0.5951821715 0.0491387768
H 0.6483689541 0.9691966011 1.2730424072 -0.2752670041 -0.7567543676 -0.4828598395
H -0.8005389575 1.9926420985 -1.3802486736 -1.3288062218 -2.9374752956 0.6227274796
H -0.4367448758 2.4701905868 0.3814702270 0.1123470056 -0.5617512781 0.5910477900
H -2.1075500688 2.1488209205 -0.1448021928 0.9700304056 -0.1488534727 -0.4024873532
H -2.7612956791 0.8505377378 1.0318250873 0.3310343925 0.0420574806 0.6296784518
H -1.3584346642 0.5139278096 2.1932570924 0.1297809210 0.6180162713 0.1382082538
H -2.9931236532 -1.5302509185 1.7631972581 0.3766866081 -0.0631719985 0.1499132320
H -1.2863762857 -1.8421128088 1.1630525137 0.1252999921 -0.1963841311 0.8102256716
H -2.6654177766 -2.2021729207 -0.7877030219 -0.3549120748 0.1031386090 -0.2490198446
H -3.5114369382 -0.5984987094 -0.4115821586 -0.3271604618 -0.4522425424 -0.5983112916
H -1.8346898284 0.1813254153 -1.8015723612 1.0582730145 0.0891016399 -0.0514718614
H -0.6778932432 -1.1624454625 -1.2641204117 0.1952890422 0.8568728838 -0.1146117392
O 2.2104894592 5.2178597268 -2.5566279906 -0.4680413947 6.3548314418 -0.2726065739
S 2.4826805393 3.7439272985 -2.7488253158 -1.3334723385 1.0344342000 0.4661539796
O 2.7269821879 3.1435445748 -1.3889758477 1.7727073763 -4.1001787046 5.4620447546
N 1.1189601303 3.0704249854 -3.5246229492 -0.9301471980 -3.1885171887 -5.4181454047
S -0.2872746038 3.2850830272 -2.5741198656 4.3122798863 4.6496955461 -3.5024761011
O -1.0857044336 2.0004204809 -2.6598153725 -4.1222892180 -5.3190210261 -3.4087364234
O 0.0217662030 3.4848004923 -1.1151556842 2.4329555029 5.0709687346 4.7073969797
F -1.2225185234 4.5705065130 -3.1358328979 -1.7827144021 1.9382903007 -1.1111394271
F 3.8582232168 3.5311809831 -3.6682265104 2.7096184474 -0.8204908909 -2.4914691607
39
energy=-47306.6818791652 config_type=IL_pair name=Pyr14-FSI Properties=species:S:1:pos:R:3:forces:R:3
C 3.0631191179 0.1339144238 0.5863119494 0.5936884526 1.3878059706 2.1660347871
C 2.2937085068 0.9306540664 -0.4794486191 3.6944073217 0.2126141694 0.3435755931
C 1.5413820937 0.0080119862 -1.3779764816 4.9207495559 2.2583660246 -1.2129330911
C 0.5616557122 -0.8632371532 -0.7281561053 3.9990590218 -7.0778960218 -0.7509907081
N -0.5622358371 -0.3857458198 -0.0442077750 0.8203993709 0.1376534569 3.8399997749
C -0.8353318085 -1.3094706556 1.0619537395 2.3182788838 -3.4766156228 2.3811365269
C -0.5825187069 0.9170638410 0.5058578118 -0.9719298912 5.1638260825 3.8269546323
C -2.0449230336 0.9754530320 1.0336258050 -0.2711154981 3.1357558370 2.1151179546
C -2.8278116037 0.1667688626 0.0611549064 -3.7186232171 0.9735355325 -0.9353099329
C -1.7733368636 -0.3851391714 -0.8655695089 2.5686686941 4.4782637072 9.6841496028
H 2.3685499369 -0.4683980885 1.2117680673 0.6358526795 -0.1940532165 -0.4264620096
H 3.8882466563 -0.4335160386 0.1362466404 -0.2659708894 -0.4954344032 0.1337838295
H 3.5215812616 0.8765657527 1.2949902251 -0.0766990318 -0.6847082586 -0.4214643449
H 1.7505189104 1.7139011354 0.0272619349 -0.6697555371 0.6680954949 -0.1132011908
H 3.1043930653 1.3757995513 -1.1341800877 -1.0443850390 0.1874360351 0.7453914970
H 1.1539327332 0.5690418010 -2.2632370352 0.2769107004 -0.0414694724 1.6406427678
H 2.3204120039 -0.6735992506 -1.8523281954 -1.0122539593 0.5513207635 0.6464489719
H 1.1316097065 -1.5344175088 -0.0144644867 -0.2699929902 1.0132415908 -0.1036545905
H 0.1657398762 -1.6330040317 -1.4802196673 0.5776337369 1.1014585516 1.1921362454
H -0.0881729436 -1.0513086270 1.8439706801 -0.6043339273 -0.2178712777 0.2222982129
H -0.5261506086 -2.3283551590 0.7045533825 -0.9199603117 0.5711087684 0.3156754725
H -1.8553569092 -1.2794010282 1.4278455021 -0.2231226266 -0.2022049797 0.1088220785
H 0.0283368129 1.0569293359 1.4254838656 0.7047792688 0.0673050454 -0.9340243002
H -0.5485019930 1.7596087346 -0.2070255903 1.0165046933 -0.5891170564 -0.3706307131
H -2.3871784310 2.0409199254 1.0523393654 0.2668578869 -0.6431955621 0.0197758212
H -2.1088721873 0.6306076254 2.0688940440 -0.0205293809 -0.1396515212 0.2450272452
H -3.5062239646 -0.5923389551 0.4882144106 0.2473668357 -0.0408597511 0.2682473974
H -3.5197664307 0.8618705995 -0.5077885090 0.6912527759 -0.8177723941 0.3567927459
H -2.0292774354 -1.3818785821 -1.2621721592 4.3962280885 -7.2844792716 7.2439179827
H -1.6975276368 0.3026993962 -1.7069806194 6.8953719671 6.4559074834 3.5005757115
O -2.9734258756 0.8494857785 -4.0281906790 -0.2049046358 6.5066172916 -0.6208488472
S -2.8189058772 -0.6049965181 -3.6456160010 0.4865440845 1.3035768975 -7.9210081509
O -4.0611689480 -1.3484855363 -3.9779082148 -6.4648248898 -4.9194787590 -0.9067874792
N -1.5321153184 -1.3006146771 -4.5730849715 -0.6877063330 -3.3897935965 -2.3606591847
S -0.0510986809 -0.5310568800 -4.1919027673 -2.2589163496 -0.5128459081 -2.6212084130
O 0.0846664841 -0.3038017734 -2.7052994072 -4.3438033869 1.6795142875 0.7411004554
O 1.1335974185 -1.3547093705 -4.6121064873 4.8419989551 -3.2797875137 -2.8289989954
F -0.0261793563 0.9441856496 -4.9797595013 0.0405541508 2.9198393338 -1.5009992675
F -2.3960218116 -0.6956197399 -2.0381770992 -15.9741234270 -6.7637074992 -17.7015193282
39
energy=-47314.3569004037 config_type=IL_pair name=Pyr14-FSI Properties=species:S:1:pos:R:3:forces:R:3
C 4.1089462000 -0.3548929549 -0.0915425232 1.7750101958 -0.3437188302 -0.6678569390
C 2.7692370653 -0.8229649494 0.4347943112 -0.4888046433 -1.0164901130 0.0582196079
C 1.6358084249 0.0735730981 -0.0575610924 0.5141487891 0.9388112982 0.9070762090
C 0.3673956388 -0.4979671474 0.5339945554 4.7677498855 -3.9742902998 -0.7598540637
N -0.8246952236 0.2056145994 0.1896267364 0.3248947617 0.9392943874 -0.7066741916
C -0.8220342058 1.5880880494 0.6148434514 0.1244780331 4.2975896209 -1.4916524935
C -1.9246778530 -0.4662651613 0.8512002020 -7.8153781084 -4.2491476537 -3.0566866022
C -3.1161099046 -0.3349930042 -0.0692611168 -2.7307578103 -0.9672318363 0.0800243308
C -2.6124468051 0.3693787664 -1.2863474643 -2.0057184206 0.4285673360 -2.8756508323
C -1.1197617925 0.1146080430 -1.2170627699 -0.3411765671 0.3791674364 -5.1867621571
H 4.9329787922 -0.6224138142 0.6041200050 -0.3167094204 0.1893206671 -0.2013769790
H 4.3036058564 -0.9143679200 -1.0285303670 0.2020165826 0.6843792006 -0.0065316803
H 4.1291070270 0.7407720005 -0.2612567354 0.0729524781 -0.4125830412 -0.0534985328
H 2.5164441739 -1.8367499125 0.0512788911 0.5527736475 0.0735224403 0.5847441645
H 2.7890270712 -0.8181453605 1.5338815059 -0.2575628423 -0.2263961739 0.1145946668
H 1.6162665566 0.1252060446 -1.1442523210 0.0195778619 0.1846966441 -0.5139226155
H 1.8115102535 1.0589816811 0.3993271166 -0.0333104656 0.3065728519 -0.5252817468
H 0.2269704622 -1.5463720985 0.1490248593 0.0986012044 0.7363899852 0.1772618122
H 0.4636406473 -0.6088997492 1.6319869469 -0.1701275971 0.4921388843 -0.2904000577
H -0.9345836486 1.6608070325 1.7162593143 1.3295024394 2.0259217112 -0.3012640759
H 0.0884426824 2.1459527351 0.3273382203 -0.2119261940 -0.5598834590 -0.2402935712
H -1.6924328138 2.1274337440 0.1890741976 0.3820794262 -0.4779628842 -0.0102858512
H -1.7105909559 -1.5650402487 0.9642930787 -0.2831630894 0.7751940576 -0.1409919429
H -2.0957956690 -0.0289597808 1.8518333891 -6.0310768692 -1.7262693413 -6.9510195363
H -3.9106212257 0.2109135049 0.4781363922 0.2007811399 0.0481790477 -0.1255861815
H -3.5385635640 -1.3245768619 -0.3377010580 0.1686984508 0.2620526549 0.1075863496
H -2.8702846902 1.4431228428 -1.3324853104 0.2012255563 -0.1366213458 0.1290130228
H -3.0833947894 -0.1038015011 -2.1863639374 0.6894491341 0.5063689546 0.2462367054
H -0.9160261404 -0.8941723540 -1.6066764626 0.3408220635 -0.1392442558 0.1524998531
H -0.5873615700 0.8761306771 -1.8170245646 0.4664410319 -0.2738222064 0.2703151950
O -3.8580351705 -0.0001815685 4.9200497663 1.7777949954 -0.8130283495 7.2117422717
S -4.5308507132 0.3951819166 3.6477898202 0.3517190492 -0.8406912575 -0.3752660884
O -5.0777003443 -0.8613143533 3.0150253032 -3.1635068489 -4.4456171892 -3.6564638893
N -3.3371898263 1.0792500333 2.6175217423 -0.4722247190 3.6855932419 -4.8153544782
S -1.7382228880 0.8017953767 3.1673033961 -4.9637470195 1.4904183641 9.6986317294
O -1.6936605594 0.3717984704 4.6163613350 1.6713331613 -2.3572391544 5.0420331843
O -0.9734508357 2.0876273548 3.0214991246 4.1762966496 6.2467155466 -0.6943763973
F -0.9545328353 -0.3740623255 2.2891943016 11.7286932282 -4.6025253101 8.5932994456
F -5.8180931106 1.4161193177 3.9107038282 -2.6550781600 2.8745374747 0.2785837944
39
energy=-47313.7047729509 config_type=IL_pair name=Pyr14-FSI Properties=species:S:1:pos:R:3:forces:R:3
C 3.6802762966 0.1467110000 0.3332546554 0.7619934084 1.6434303322 -0.3755777524
C 2.2862164437 -0.4836259084 0.4712184749 2.3077678534 -0.2688786510 0.8191862962
C 1.6278738166 -0.2145215620 -0.8548300268 1.6521087379 1.9630001425 -0.5906826306
C 0.2506194152 -0.7229072975 -0.9991698314 -3.8599631675 7.1560568293 -3.7156118704
N -0.7572523979 -0.2681604164 -0.1229447158 -1.5032107013 -0.2822132419 0.5705249635
C -0.9312919126 -1.2383581887 0.9634113657 0.0354672556 -4.2353611613 3.0767380310
C -0.6592417898 1.0324810080 0.3993075417 1.1452237329 6.7311781217 5.0645913738
C -2.0371085339 1.6704330642 0.4027872613 -1.6879189100 2.1943330916 -1.1009111291
C -2.9801239184 0.5695956615 -0.0558567522 -1.5415492754 0.0570963255 0.2308222993
C -2.0183533967 -0.2796047864 -0.8442375269 -3.3291649103 0.4219320602 -4.0272965524
H 3.5675157152 1.2556502238 0.4160423552 0.3625751958 -0.5615890319 0.3516962038
H 4.3832420294 -0.2459763384 1.0796551451 0.1273127765 0.2118362686 0.0113938247
H 4.0792085532 -0.0178479031 -0.6899518428 0.1399107642 -0.5382314906 0.5619637538
H 1.8272048993 0.0022930259 1.3324652177 -0.6700534295 -0.2939438163 0.3527584235
H 2.4870046499 -1.5607556927 0.6314717884 -0.7981090303 0.1285218389 0.1525204133
H 1.7749747522 0.8488574881 -1.1178304113 -0.3297732304 0.2643851306 0.2030050562
H 2.2427081231 -0.7695442904 -1.5988592251 -0.1856954120 1.0679257662 0.1388481074
H -0.0354859851 -0.5870158457 -2.0643004823 -0.3419070111 0.4113724365 0.5538897441
H 0.3238062219 -1.8475961278 -0.9014735109 -9.9243485789 3.6327617477 3.2747360250
H -0.4218848776 -2.1986913306 0.6712450439 -0.2948104086 0.8685577585 0.3029568957
H -1.9812089707 -1.5228143708 1.1294537188 -0.1564856450 0.4793861397 0.0402664234
H -0.5026639113 -0.9079569352 1.9134788880 0.2149129339 0.2609434899 0.1377705915
H -0.3297955513 1.0442822179 1.4800694955 0.2051294812 -0.4190758398 -1.1487765786
H 0.0107480709 1.7248121671 -0.1097038757 0.6918065942 -0.4349954447 -0.7642897503
H -2.3114970708 2.1247886818 1.3517092340 -0.0679243645 0.1040575586 0.5359367635
H -2.1249715533 2.4628097757 -0.3787055287 0.4675133533 -0.1348409450 0.5671867383
H -3.4681260753 0.0529139357 0.7729960809 -0.1203870704 -0.3299337945 0.2511655199
H -3.7542120426 0.9252336409 -0.7523916200 -0.1625467363 0.1196977341 0.2419953947
H -2.4048278981 -1.2830363522 -1.0596390068 0.4196510940 -0.3877722921 -0.1731013715
H -1.8233531018 0.2875514559 -1.7986719098 -0.2117209899 -0.8293222955 0.5029296363
O 1.0701914385 -2.3182425136 -3.7687884315 -1.1925108275 5.2396916632 -4.8553975153
S 1.4116404605 -3.0983324446 -2.5284980240 3.4796995656 -5.0164689640 -4.2148327848
O 0.4277296356 -4.2499628654 -2.4888454794 -3.8799907580 -4.6038986671 1.5987621985
N 2.9722530652 -3.7850951849 -2.5656371993 -0.6387205944 -3.5961475220 0.2150349753
S 4.2574893342 -2.6861593266 -2.6113204479 0.5569449602 -0.7539733579 -0.3292292644
O 4.6774446821 -2.1931812291 -1.2527864313 0.4772362250 3.4145040822 6.2063800928
O 5.4635853521 -3.4324723915 -3.1453204021 4.0632451991 -3.1517869544 -3.3197558857
F 4.0280169678 -1.3973387808 -3.6449822364 -1.0969706681 3.0548382293 -2.2934473568
F 1.1172884370 -2.2124176476 -1.1487722274 14.8898013532 -13.5883586496 0.9452976615
39
energy=-47309.7446776014 config_type=IL_pair name=Pyr14-FSI Properties=species:S:1:pos:R:3:forces:R:3
C 2.9965650430 0.3394396536 -0.3976930630 -5.7746220516 -6.1616725061 -12.0556163958
C 2.3427675206 -0.6864588442 0.5049339647 3.7221184143 -5.6977058985 -1.8458226349
C 1.4102427747 -1.5921932090 -0.2380499587 3.3881239749 -3.1078987236 -0.3106927836
C 0.2774926377 -0.9540965107 -0.9264870804 2.6823379738 -2.9686909978 -4.7496226051
N -0.6539609217 -0.2120552621 -0.1590953787 -1.3148801278 0.2807263923 0.2669183760
C -1.0423874874 -0.7969653679 1.0956874684 -1.8669384103 -1.4775971533 6.0152591550
C -0.3361055790 1.2048665952 -0.0223295513 1.4228069755 4.2935338454 -1.4973559549
C -1.6354695260 1.9540751405 -0.0529053579 -1.8144129078 3.0596536436 -0.1850651390
C -2.6689414641 0.8783961043 -0.2286724899 -2.8491601714 0.1402695886 0.7368478240
C -1.8614955098 -0.1461528942 -0.9740174151 -3.0514297843 0.3170786617 -2.3973188941
H 4.0950416672 0.4097833500 -0.1734718542 -1.4703458148 -2.2730418390 -5.3921697319
H 2.5456274527 1.3500477984 -0.3117229707 -0.1335797005 -0.8244002679 -2.5351087953
H 2.9256101291 0.0169378310 -1.4643353217 -1.5719662900 0.0470017666 -0.5943767630
H 3.1451722098 -1.3374721491 0.9305093520 -0.3355967416 -0.0259684284 -0.5928405718
H 1.9126700575 -0.1413202890 1.3528464749 0.0880723855 -2.7058185233 -0.9060337858
H 2.0493309385 -2.0171148993 -1.0733973839 -1.0439573424 0.1483025638 0.2310373096
H 1.1872343712 -2.5014986887 0.3577226550 -0.7317634737 0.4006110084 0.0004191200
H 0.6992911671 -0.2672965137 -1.6959865643 -0.1429172636 -0.0945494077 0.3061634471
H -0.2558094686 -1.7506082921 -1.4873691648 -0.3054291529 0.2979544340 0.2011917836
H -0.3144072284 -1.4852125207 1.5356097143 0.6569650744 0.0684139913 -0.2917597569
H -1.2378937453 0.0056179013 1.8670154182 0.5134380861 -0.7037667162 -0.7955154635
H -2.0009624198 -1.3573843149 1.0424691053 0.4617926004 0.0428907025 -0.5030694068
H 0.2142555648 1.5094382234 -0.9452789640 0.4715327689 -0.3565386625 0.9658692057
H 0.1576103287 1.4365537640 0.9159196828 2.2866673884 -0.7996090074 0.8963523778
H -1.7328421043 2.6473758126 -0.9189644631 0.5507139249 -0.1937915707 0.3728466033
H -1.8090041402 2.5658418599 0.8512743444 0.0923665594 -0.1872876598 -0.0819953354
H -3.5478184479 1.1972781046 -0.8098891913 -0.0489814567 0.0042815881 0.1426816599
H -2.9831207685 0.5326001955 0.7758283408 -0.3954588638 -0.1749909983 -0.6534904929
H -2.3253570075 -1.1296241666 -1.0836382741 -0.0055654125 -0.3737457006 -0.2885050770
H -1.5533360440 0.3272015881 -1.9251567838 -0.2398279167 -0.6643849841 -0.2969956888
O 5.5244247641 1.9204226779 2.7431358087 0.8692364133 1.8246677305 7.3336599333
S 5.4941396117 1.7358458434 1.2606518140 1.5958269660 0.7041107340 1.9734903592
O 6.7077671765 1.0107753392 0.7438203953 5.0932045800 -2.7027687998 -3.2817535231
N 4.0374653688 0.8880337459 0.8496885535 6.2564810021 3.8394779216 9.6362825420
S 2.7402326986 1.8036298832 1.4949473908 3.6555347148 2.9974796002 3.1672142183
O 1.5911745748 0.8696823960 1.7293970446 -10.1636616016 3.6567862961 5.6374330978
O 3.0700374420 2.4644707445 2.7892002896 1.1570013910 3.9554711843 5.7774705576
F 2.1960577416 2.9994905077 0.4682495182 -1.4400467304 2.3088283260 -2.6553190280
F 5.3442547406 3.2539693374 0.5489724309 -0.2709187317 3.1075396687 -1.7536786227
39
energy=-47320.5529956878 config_type=IL_pair name=Pyr14-FSI Properties=species:S:1:pos:R:3:forces:R:3
C 3.5182092649 -0.2865312416 0.7678954295 0.6488678520 -0.3896670494 0.9803885699
C 2.1648706989 -0.7186117963 0.1806259395 1.2882048443 -2.2698802718 1.4217095725
C 1.5576098345 0.4182595244 -0.5838681624 2.7501118053 0.7728366862 -1.8226172937
C 0.2344874249 0.1065048540 -1.1931318841 2.1283989966 2.2625761611 -5.4195688637
N -0.8152091051 -0.2731538326 -0.2874592424 -0.1534493827 -1.7057093206 -0.8344655813
C -0.7440327284 -1.7169366819 -0.1567294512 0.6444477951 -5.9584393966 0.0425687186
C -2.0976108493 0.0475917520 -0.8911741357 -5.3391958118 0.7752652467 -2.0101633445
C -2.5062996927 1.3837033308 -0.3039718303 -1.1961824624 1.3680128969 -0.4369535779
C -1.9819425168 1.2880787359 1.1117150188 -1.1126174847 2.0996832687 1.4770416010
C -0.7895091282 0.3811556034 0.9900381487 0.1057993852 -0.1889678378 6.9225951348
H 4.3009260249 -0.3216348406 -0.0122817005 -0.0373066193 0.4369788567 0.2370660841
H 3.3536610177 0.7107499946 1.2030528607 0.6787413165 0.0704722590 -0.0169810209
H 3.8096189078 -0.9643254102 1.6185154363 -0.2547963766 0.5762767917 -0.7940216150
H 1.5594586511 -1.0397481431 1.0499618511 -0.0789159609 0.0750603830 -0.3096973068
H 2.4033519474 -1.5953659345 -0.4569539177 -0.7496625251 0.1330031678 -0.0161739946
H 1.6313273241 1.3273376616 0.0066734078 -0.5729540029 0.5794187057 0.3258878112
H 2.2636006638 0.5991825620 -1.4576550110 -0.9308639866 0.0125674217 0.7251727663
H 0.3810703002 -0.6923916419 -1.9757731400 -0.3802042250 0.4705361268 0.8052988033
H -0.1564186057 0.9685026662 -1.7738660232 0.3419661561 0.1848312751 0.2855239558
H -1.6620961701 -2.1459739225 -0.6012803096 0.1831217226 -0.1798938536 0.4627467222
H -0.6209266545 -2.0327255911 0.8998340429 -0.1946617754 0.0570030883 -0.3712797436
H 0.1013335659 -2.1585655348 -0.7508579486 -0.5132882517 0.5130203676 0.6964792497
H -2.8866796027 -0.6838254765 -0.6151560664 0.5779722341 -0.1041840294 0.0939921645
H -2.0763327424 0.1074907845 -1.9846622697 0.4886617489 -0.4336087313 -0.3199453753
H -2.0322602605 2.1838372115 -0.8910176821 -0.1932161130 0.3529957299 0.1496506221
H -3.6059207808 1.5169654918 -0.2388039698 0.3533469255 0.0290768041 -0.7459602613
H -1.7292857199 2.2841433621 1.5432886182 0.0883549765 -0.4923197178 -0.1989119977
H -2.7714211774 0.8665647835 1.7692759033 0.4257316242 -0.0772320625 -0.1634317397
H -0.9415098566 -0.4309091908 1.7631959129 0.5526039855 0.8612654629 -0.4609625550
H 0.1379299651 0.8706309199 1.2705701752 0.7338366311 0.2164339592 -0.3221928235
O 2.2120713535 -0.0447836237 3.2846259251 -2.5144557838 -1.9627404150 -5.9525963646
S 2.6835812068 0.6486752711 4.5406304418 -2.3814207461 -0.2279643302 1.4390464370
O 4.0351640404 0.1192576754 4.9169272982 6.4256373257 -1.3284866453 2.2921970106
N 1.5440058063 0.3317903854 5.8135788974 1.3532766184 -1.0667987511 3.8877170903
S -0.0379652928 0.5118159343 5.1795851760 2.0966649153 -0.0131018350 0.3423417033
O -0.9779140209 0.8674634302 6.3010143617 -4.2930791725 0.1165749389 5.3097884681
O -0.1254350832 1.6275452552 4.1650771623 -0.1737977677 4.0043582112 -5.5980111677
F -0.5063843424 -0.9186790317 4.4207202390 -1.0010646972 -3.0342679163 -1.6119626591
F 2.6789982079 2.3111206356 4.3438011074 0.2035702160 3.4651564604 -0.4972212669
39
energy=-47320.9561817711 config_type=IL_pair name=Pyr14-FSI Properties=species:S:1:pos:R:3:forces:R:3
C 3.4350604356 -0.1013541364 -0.4760564766 1.6446992675 -0.6136450441 -1.9325139786
C 2.7919444209 0.5621915206 0.7013283698 0.1293904837 0.6302897976 2.2099086462
C 1.4113005766 -0.0405077523 0.9958756764 0.2738414866 0.6514853457 1.1856675858
C 0.5767587535 0.1758978470 -0.2391399804 3.3671932822 1.2265835358 -0.2888734100
N -0.7621240749 -0.3447303849 -0.1089915416 0.6288718519 -1.1743245417 -0.2173063908
C -0.7206028317 -1.7778712236 0.1249840808 -0.2280964292 -4.9278432238 0.0615976888
C -1.4607188110 -0.0015666536 -1.3352003958 -2.3122289718 -0.2518396935 -4.9691534225
C -2.3986795079 1.1234707456 -0.9465375426 -1.2031986045 0.5658086087 -0.7970540757
C -2.8784505289 0.5930223238 0.3987678007 0.2329215309 -0.4441662709 -0.1370518856
C -1.5081445563 0.2307272860 0.9879938269 -2.3204060088 3.2920649559 3.7375985683
H 3.0217856618 -1.1170568523 -0.6809872602 0.4210638757 0.5265364874 0.0969502449
H 4.5312958124 -0.1791375079 -0.3051785803 -0.4562550168 -0.1789685285 -0.2413064503
H 3.2992390619 0.5511869396 -1.3625954978 0.0440657994 -0.5789659596 -0.0322244309
H 3.4029568408 0.4257215722 1.6153517317 -0.0633953135 0.0562624033 -0.1820827046
H 2.7200436945 1.6440957519 0.5232594812 -0.1306867411 0.1693029611 0.1175692454
H 0.9285456264 0.5178789129 1.8202046803 0.2857465392 -0.4646103021 0.2075219976
H 1.5371811389 -1.1074902881 1.2398782853 -0.2184752232 0.0266593705 0.1887989188
H 1.0454001273 -0.3285156699 -1.0838105983 0.0381204875 -0.1975830004 -0.5143013876
H 0.5158557876 1.2451624675 -0.4575079572 -0.1318147115 0.4559805584 -0.1354647858
H 0.2121706608 -2.2536335860 -0.2585225468 -0.6640878516 0.2962461296 -0.1878053912
H -1.6357310067 -2.2054083228 -0.3427439358 0.6223810667 -0.2123612675 0.1576501539
H -0.7852184998 -2.0172055269 1.2061150077 0.6050379946 -0.7976884362 0.4863145788
H -2.0399021515 -0.9120669438 -1.6536673128 0.4213297286 0.8193072794 -0.0732216560
H -0.7668370254 0.3069657447 -2.1443758512 -0.0124261632 -0.4193107990 0.2529617998
H -3.2358584888 1.2300989211 -1.6626189178 0.4178012044 0.2911962974 -0.0387509124
H -1.7994945181 2.0333653595 -0.8352548798 -0.3292526470 0.5631209816 -0.1078425006
H -3.3989394929 1.3225444396 1.0117336939 -0.5526268668 0.1124813948 0.3856787973
H -3.4189698891 -0.3399774390 0.1995642906 -0.7726580790 0.0966159343 0.4430956519
H -1.5834238059 -0.4453450419 1.8532175894 0.3827699382 0.2220394516 0.1377096938
H -1.0364434100 1.2095374975 1.2149147604 0.0950146641 -0.4770123569 0.6222290025
O 0.5433008199 -3.8949543449 5.0573794241 -1.6914651634 1.6806993305 6.0322158023
S 1.0315881567 -4.0059347149 3.6336633148 -1.4553801579 -0.2691285610 -0.5880885092
O 1.5768640858 -5.3850406889 3.3782419761 3.4027366979 -5.4382088210 -1.8717090434
N -0.2622908790 -3.7614003769 2.5180825518 -0.2007167986 3.2791925400 -4.7483176520
S -1.7305623123 -4.0581409278 3.3996127136 3.3877507381 -0.8418484676 0.9223899781
O -1.6357003098 -5.3904175295 4.1116501791 0.6421659880 -4.7721731717 3.6677613721
O -2.9161168395 -4.1300387712 2.5034780819 -6.1979554538 1.4156700261 -5.2057285998
F -1.8571291981 -2.8339027480 4.5311360877 -0.5163797487 3.0096223386 2.2583510937
F 2.2600803425 -2.8756634801 3.4161479213 2.4141307498 2.6735504564 -0.9071617711
39
energy=-47319.1865024640 config_type=IL_pair name=Pyr14-FSI Properties=species:S:1:pos:R:3:forces:R:3
C 3.9754362403 -0.5584562459 0.4871407965 3.2381973809 1.2543263833 0.7960631179
C 2.7464612600 -0.5171122028 -0.3586980856 -1.3107894021 -1.5434125720 -1.1850771707
C 1.5440529176 0.0396675213 0.4151770682 0.4760204710 -0.5461769789 0.8205273161
C 0.3789287055 0.0287132551 -0.5430166913 3.2660845678 -1.2947930449 -1.9464545266
N -0.8525958544 0.5212254987 0.0083211298 -0.3712573393 -0.5683713830 0.0129432849
C -0.7724662301 1.8864154229 0.4782097037 -0.4793555811 2.4818118748 1.2408411100
C -1.3917957769 -0.2801261689 1.0640163481 -2.3893479169 -2.6486015560 5.4479645993
C -2.4017273887 -1.2346194356 0.4763879534 -1.0298459279 -1.4207431861 1.2397245925
C -2.8721374860 -0.5058172665 -0.7378230941 -3.1181655492 -1.6145762392 -2.3342932395
C -1.8198267828 0.5043223082 -1.0800898134 -3.0395577594 1.0503812501 -4.4757088988
H 4.3353083033 -1.5875824631 0.6376466695 -0.0407646137 0.1289409323 0.3466358225
H 3.8681742681 -0.0137359518 1.4538590185 -0.1495524996 -0.6626157177 -0.3211531195
H 4.7913909687 0.0035827039 -0.0405693250 -0.3714754712 -0.6050553341 0.3917904385
H 2.5140219247 -1.5623636960 -0.6910275205 -0.0680044497 0.6540644217 0.1083029390
H 2.9017787099 0.0566461007 -1.2800924874 0.0115460551 0.3184653790 -0.0866907087
H 1.3252415815 -0.5997392709 1.2942681779 0.2016874497 0.1478194540 -0.1863507571
H 1.7820057353 1.0413450596 0.7761604077 -0.0979647119 0.5388691312 0.0648629182
H 0.6256872297 0.6500807301 -1.4275777757 -0.1148221884 -0.0038522478 0.1877114260
H 0.1923121993 -0.9974476780 -0.8954837233 0.0083911645 -0.1861221226 -0.0851552869
H -0.4306912637 1.9922462359 1.5165478614 0.7532508136 -0.2655674514 -0.1657349475
H -0.2290261606 2.5022465951 -0.2601715863 0.2322450487 -0.1454831266 0.8071683572
H -1.8264523904 2.2771734378 0.4683002739 0.9227941488 -0.5228836094 0.0298125768
H -1.9715174963 0.3687774957 1.7834367034 0.9922471429 -0.2358469777 -0.5657591756
H -0.6673475728 -0.8908345592 1.6198718309 0.6307946901 0.6727183405 0.1106394907
H -3.2833549105 -1.3580980626 1.1507163934 0.8949989859 -0.5560870489 -0.0453005206
H -1.9076804925 -2.1911733708 0.2320695433 -0.4422033282 -0.0796182481 0.0857974734
H -3.0045797421 -1.2844363404 -1.5396144617 -0.0716315068 1.0545492900 0.2195690368
H -3.8611443082 -0.0106322167 -0.5905963092 0.5173033709 -0.3230709387 0.0495577474
H -2.3003573417 1.4979150129 -1.2379538423 0.6341999100 -0.0584266854 0.1376406086
H -1.3880988461 0.2218175513 -2.0504405501 0.6818208631 0.2064109221 0.1202258855
O 2.1993415439 6.1113273931 -0.6306754708 2.9612929497 6.9464006932 -0.2329345317
S 1.8157059734 4.6728105119 -0.7027278731 -1.1443111366 0.4401225345 -0.6891333941
O 1.2186005263 4.2112431628 0.5866008129 -1.1150773052 -3.2498288428 6.5288818252
N 0.6612332187 4.5029301117 -1.9549830003 0.1315795796 -1.1294472490 -5.6993639058
S -0.9115585801 4.6043340707 -1.2610465497 2.4913702837 1.5380559055 -1.5296112228
O -0.9293611916 3.8554615688 0.0398128451 -1.4808974444 1.1752295209 6.2105819171
O -1.9441764091 3.9274848180 -2.1316639753 -4.4020627633 -1.9427642718 -4.5776098880
F -1.3478012513 6.1703875353 -0.8777380056 -0.9446436345 3.4738213774 0.4522737134
F 3.1694239141 3.7558727089 -1.0061173020 3.1349630476 -2.4818680194 -1.2818831241
